EA61    4.786  9.413  4.575 89.77 89.71 89.06 Sym.group:    1
1.0000
    4.786104     0.000000     0.000000
    0.153641     4.412148     0.000000
    0.023150     0.017985     5.575177
  Mg  Al   O
   4    8   16
Direct
    0.177047     0.527518     0.718366
    0.302680     0.846513     0.700353
    0.345608     0.017675     0.202508
    0.677284     0.527465     0.181827
    0.802523     0.844389     0.196316
    0.849121     0.016071     0.703778
    0.295567     0.192616     0.707031
    0.722626     0.354611     0.696679
    0.235244     0.692040     0.200328
    0.218643     0.352537     0.204500
    0.729982     0.689491     0.693392
    0.794447     0.191250     0.199204
    0.639977     0.147289     0.857623
    0.725716     0.017974     0.345057
    0.789273     0.517074     0.576597
    0.391004     0.368258     0.864097
    0.924571     0.658041     0.012017
    0.505279     0.263924     0.392749
    0.291305     0.516593     0.321469
    0.429358     0.655059     0.883488
    0.005883     0.760160     0.493524
    0.126303     0.880660     0.058408
    0.122407     0.160869     0.036980
    0.186788     0.031168     0.588949
    0.667463     0.885164     0.855159
    0.528175     0.762549     0.375690
    0.002371     0.270834     0.507973
    0.884704     0.372843     0.034924
