14
	Energy:       0.0224902
C         -3.75823        0.65280       -0.25219
C         -3.44393        2.01166       -0.21022
C         -2.12201        2.41818       -0.02182
C         -1.10835        1.46811        0.12423
C         -2.74750       -0.29853       -0.10868
C         -1.42570        0.10825        0.07958
H         -4.78695        0.33675       -0.38714
N          0.22728        1.88080        0.34223
H         -4.22906        2.75271       -0.31322
H         -1.89143        3.47656        0.02935
H         -2.99084       -1.35513       -0.13261
H         -0.65111       -0.63937        0.20998
H          0.40831        2.82797       -0.14435
H          0.91375        1.14505       -0.05025
