22
	Energy:       6.6777241
C         -3.54518        0.67008       -0.17804
C         -3.22850        2.03176       -0.13821
C         -1.91253        2.45452        0.05682
C         -0.88584        1.51989        0.19494
C         -2.51320       -0.26107       -0.01516
C         -1.19537        0.15914        0.16972
N         -4.88748        0.24398       -0.39464
N          0.45424        1.94628        0.34766
H         -3.99319        2.78683       -0.27104
H         -1.69397        3.51592        0.09798
H         -2.70739       -1.32565       -0.04210
H         -0.41297       -0.58101        0.29658
H          0.60435        2.88717       -0.16135
H          1.12776        1.21047       -0.06680
C         -5.24072       -1.19162       -0.35118
C         -6.00989        1.18851       -0.20501
H         -4.72077       -1.70939       -1.17093
H         -6.31825       -1.36932       -0.47710
H         -6.98828        0.69018       -0.15267
H         -6.02926        1.88285       -1.05848
H         -5.86757        1.75676        0.72607
H         -4.93086       -1.62280        0.61251
