EA21
 1.0000000000000000
     4.779000   -0.000000   -0.000000
     2.054401    4.314890    0.000000
     0.670146   -2.594441    3.957097
 H   O  
   8   4
Direct
  0.566821 -0.178580  0.517342
  0.559583  0.148433  0.523136
  0.307444  0.328713  0.275433
  0.307469  0.650214  0.275450
  0.807343  0.328837  0.775568
  0.807250  0.650340  0.775513
  0.055882 -0.169785  0.026871
  0.055794  0.151701  0.026754
  0.478863 -0.013756  0.439969
  0.224447  0.490103  0.193863
  0.726311  0.488421  0.691970
 -0.025988 -0.009497 -0.055942
EA21
 1.0000000000000000
     4.779000   -0.000000   -0.000000
     2.054401    4.314890    0.000000
     0.670146   -2.594441    3.957097
 H   O  
   8   4
Direct
  0.566821 -0.178580  0.517342
  0.559583  0.148433  0.523136
  0.307444  0.328713  0.275433
  0.307469  0.650214  0.275450
  0.807343  0.328837  0.775568
  0.807250  0.650340  0.775513
  0.055882 -0.169785  0.026871
  0.055794  0.151701  0.026754
  0.478863 -0.013756  0.439969
  0.224447  0.490103  0.193863
  0.726311  0.488421  0.691970
 -0.025988 -0.009497 -0.055942
EA21
 1.0000000000000000
     4.779000   -0.000000   -0.000000
     2.054401    4.314890    0.000000
     0.670146   -2.594441    3.957097
 H   O  
   8   4
Direct
  0.566821 -0.178580  0.517342
  0.559583  0.148433  0.523136
  0.307444  0.328713  0.275433
  0.307469  0.650214  0.275450
  0.807343  0.328837  0.775568
  0.807250  0.650340  0.775513
  0.055882 -0.169785  0.026871
  0.055794  0.151701  0.026754
  0.478863 -0.013756  0.439969
  0.224447  0.490103  0.193863
  0.726311  0.488421  0.691970
 -0.025988 -0.009497 -0.055942
EA21
 1.0000000000000000
     4.779000   -0.000000   -0.000000
     2.054401    4.314890    0.000000
     0.670146   -2.594441    3.957097
 H   O  
   8   4
Direct
  0.566821 -0.178580  0.517342
  0.559583  0.148433  0.523136
  0.307444  0.328713  0.275433
  0.307469  0.650214  0.275450
  0.807343  0.328837  0.775568
  0.807250  0.650340  0.775513
  0.055882 -0.169785  0.026871
  0.055794  0.151701  0.026754
  0.478863 -0.013756  0.439969
  0.224447  0.490103  0.193863
  0.726311  0.488421  0.691970
 -0.025988 -0.009497 -0.055942
EA21
 1.0000000000000000
     4.779000   -0.000000   -0.000000
     2.054401    4.314890    0.000000
     0.670146   -2.594441    3.957097
 H   O  
   8   4
Direct
  0.566821 -0.178580  0.517342
  0.559583  0.148433  0.523136
  0.307444  0.328713  0.275433
  0.307469  0.650214  0.275450
  0.807343  0.328837  0.775568
  0.807250  0.650340  0.775513
  0.055882 -0.169785  0.026871
  0.055794  0.151701  0.026754
  0.478863 -0.013756  0.439969
  0.224447  0.490103  0.193863
  0.726311  0.488421  0.691970
 -0.025988 -0.009497 -0.055942
EA21
 1.0000000000000000
     4.779000   -0.000000   -0.000000
     2.054401    4.314890    0.000000
     0.670146   -2.594441    3.957097
 H   O  
   8   4
Direct
  0.566821 -0.178580  0.517342
  0.559583  0.148433  0.523136
  0.307444  0.328713  0.275433
  0.307469  0.650214  0.275450
  0.807343  0.328837  0.775568
  0.807250  0.650340  0.775513
  0.055882 -0.169785  0.026871
  0.055794  0.151701  0.026754
  0.478863 -0.013756  0.439969
  0.224447  0.490103  0.193863
  0.726311  0.488421  0.691970
 -0.025988 -0.009497 -0.055942
EA21
 1.0000000000000000
     4.779000   -0.000000   -0.000000
     2.054401    4.314890    0.000000
     0.670146   -2.594441    3.957097
 H   O  
   8   4
Direct
  0.566821 -0.178580  0.517342
  0.559583  0.148433  0.523136
  0.307444  0.328713  0.275433
  0.307469  0.650214  0.275450
  0.807343  0.328837  0.775568
  0.807250  0.650340  0.775513
  0.055882 -0.169785  0.026871
  0.055794  0.151701  0.026754
  0.478863 -0.013756  0.439969
  0.224447  0.490103  0.193863
  0.726311  0.488421  0.691970
 -0.025988 -0.009497 -0.055942
EA21
 1.0000000000000000
     4.779000   -0.000000   -0.000000
     2.054401    4.314890    0.000000
     0.670146   -2.594441    3.957097
 H   O  
   8   4
Direct
  0.566821 -0.178580  0.517342
  0.559583  0.148433  0.523136
  0.307444  0.328713  0.275433
  0.307469  0.650214  0.275450
  0.807343  0.328837  0.775568
  0.807250  0.650340  0.775513
  0.055882 -0.169785  0.026871
  0.055794  0.151701  0.026754
  0.478863 -0.013756  0.439969
  0.224447  0.490103  0.193863
  0.726311  0.488421  0.691970
 -0.025988 -0.009497 -0.055942
EA21
 1.0000000000000000
     4.779000   -0.000000   -0.000000
     2.054401    4.314890    0.000000
     0.670146   -2.594441    3.957097
 H   O  
   8   4
Direct
  0.566821 -0.178580  0.517342
  0.559583  0.148433  0.523136
  0.307444  0.328713  0.275433
  0.307469  0.650214  0.275450
  0.807343  0.328837  0.775568
  0.807250  0.650340  0.775513
  0.055882 -0.169785  0.026871
  0.055794  0.151701  0.026754
  0.478863 -0.013756  0.439969
  0.224447  0.490103  0.193863
  0.726311  0.488421  0.691970
 -0.025988 -0.009497 -0.055942
EA21
 1.0000000000000000
     4.779000   -0.000000   -0.000000
     2.054401    4.314890    0.000000
     0.670146   -2.594441    3.957097
 H   O  
   8   4
Direct
  0.566821 -0.178580  0.517342
  0.559583  0.148433  0.523136
  0.307444  0.328713  0.275433
  0.307469  0.650214  0.275450
  0.807343  0.328837  0.775568
  0.807250  0.650340  0.775513
  0.055882 -0.169785  0.026871
  0.055794  0.151701  0.026754
  0.478863 -0.013756  0.439969
  0.224447  0.490103  0.193863
  0.726311  0.488421  0.691970
 -0.025988 -0.009497 -0.055942
EA21
 1.0000000000000000
     4.779000   -0.000000   -0.000000
     2.054401    4.314890    0.000000
     0.670146   -2.594441    3.957097
 H   O  
   8   4
Direct
  0.566821 -0.178580  0.517342
  0.559583  0.148433  0.523136
  0.307444  0.328713  0.275433
  0.307469  0.650214  0.275450
  0.807343  0.328837  0.775568
  0.807250  0.650340  0.775513
  0.055882 -0.169785  0.026871
  0.055794  0.151701  0.026754
  0.478863 -0.013756  0.439969
  0.224447  0.490103  0.193863
  0.726311  0.488421  0.691970
 -0.025988 -0.009497 -0.055942
EA21
 1.0000000000000000
     4.779000   -0.000000   -0.000000
     2.054401    4.314890    0.000000
     0.670146   -2.594441    3.957097
 H   O  
   8   4
Direct
  0.566821 -0.178580  0.517342
  0.559583  0.148433  0.523136
  0.307444  0.328713  0.275433
  0.307469  0.650214  0.275450
  0.807343  0.328837  0.775568
  0.807250  0.650340  0.775513
  0.055882 -0.169785  0.026871
  0.055794  0.151701  0.026754
  0.478863 -0.013756  0.439969
  0.224447  0.490103  0.193863
  0.726311  0.488421  0.691970
 -0.025988 -0.009497 -0.055942
EA390
 1.0000000000000000
     4.556000   -0.000000    0.000000
     0.032681    4.555883   -0.000000
    -0.026009   -0.032206    3.931782
 H   O  
   8   4
Direct
  0.166574  0.939256  0.486870
  0.330022  1.074057  0.793322
  0.170354  0.436275 -0.015718
  0.328999  0.574339  0.292333
  0.669925  0.430555  0.793060
  0.828107  0.293220  0.485252
  0.667628  0.930287  0.292733
  0.827124  0.793104 -0.014356
  0.334236  0.908340  0.636616
  0.336757  0.408023  0.136598
  0.834639  0.459278  0.641393
  0.832478  0.959512  0.141374
EA390
 1.0000000000000000
     4.556000   -0.000000    0.000000
     0.032681    4.555883   -0.000000
    -0.026009   -0.032206    3.931782
 H   O  
   8   4
Direct
  0.166574  0.939256  0.486870
  0.330022  1.074057  0.793322
  0.170354  0.436275 -0.015718
  0.328999  0.574339  0.292333
  0.669925  0.430555  0.793060
  0.828107  0.293220  0.485252
  0.667628  0.930287  0.292733
  0.827124  0.793104 -0.014356
  0.334236  0.908340  0.636616
  0.336757  0.408023  0.136598
  0.834639  0.459278  0.641393
  0.832478  0.959512  0.141374
EA390
 1.0000000000000000
     4.556000   -0.000000    0.000000
     0.032681    4.555883   -0.000000
    -0.026009   -0.032206    3.931782
 H   O  
   8   4
Direct
  0.166574  0.939256  0.486870
  0.330022  1.074057  0.793322
  0.170354  0.436275 -0.015718
  0.328999  0.574339  0.292333
  0.669925  0.430555  0.793060
  0.828107  0.293220  0.485252
  0.667628  0.930287  0.292733
  0.827124  0.793104 -0.014356
  0.334236  0.908340  0.636616
  0.336757  0.408023  0.136598
  0.834639  0.459278  0.641393
  0.832478  0.959512  0.141374
EA390
 1.0000000000000000
     4.556000   -0.000000    0.000000
     0.032681    4.555883   -0.000000
    -0.026009   -0.032206    3.931782
 H   O  
   8   4
Direct
  0.166574  0.939256  0.486870
  0.330022  1.074057  0.793322
  0.170354  0.436275 -0.015718
  0.328999  0.574339  0.292333
  0.669925  0.430555  0.793060
  0.828107  0.293220  0.485252
  0.667628  0.930287  0.292733
  0.827124  0.793104 -0.014356
  0.334236  0.908340  0.636616
  0.336757  0.408023  0.136598
  0.834639  0.459278  0.641393
  0.832478  0.959512  0.141374
EA390
 1.0000000000000000
     4.556000   -0.000000    0.000000
     0.032681    4.555883   -0.000000
    -0.026009   -0.032206    3.931782
 H   O  
   8   4
Direct
  0.166574  0.939256  0.486870
  0.330022  1.074057  0.793322
  0.170354  0.436275 -0.015718
  0.328999  0.574339  0.292333
  0.669925  0.430555  0.793060
  0.828107  0.293220  0.485252
  0.667628  0.930287  0.292733
  0.827124  0.793104 -0.014356
  0.334236  0.908340  0.636616
  0.336757  0.408023  0.136598
  0.834639  0.459278  0.641393
  0.832478  0.959512  0.141374
EA390
 1.0000000000000000
     4.556000   -0.000000    0.000000
     0.032681    4.555883   -0.000000
    -0.026009   -0.032206    3.931782
 H   O  
   8   4
Direct
  0.166574  0.939256  0.486870
  0.330022  1.074057  0.793322
  0.170354  0.436275 -0.015718
  0.328999  0.574339  0.292333
  0.669925  0.430555  0.793060
  0.828107  0.293220  0.485252
  0.667628  0.930287  0.292733
  0.827124  0.793104 -0.014356
  0.334236  0.908340  0.636616
  0.336757  0.408023  0.136598
  0.834639  0.459278  0.641393
  0.832478  0.959512  0.141374
EA390
 1.0000000000000000
     4.556000   -0.000000    0.000000
     0.032681    4.555883   -0.000000
    -0.026009   -0.032206    3.931782
 H   O  
   8   4
Direct
  0.166574  0.939256  0.486870
  0.330022  1.074057  0.793322
  0.170354  0.436275 -0.015718
  0.328999  0.574339  0.292333
  0.669925  0.430555  0.793060
  0.828107  0.293220  0.485252
  0.667628  0.930287  0.292733
  0.827124  0.793104 -0.014356
  0.334236  0.908340  0.636616
  0.336757  0.408023  0.136598
  0.834639  0.459278  0.641393
  0.832478  0.959512  0.141374
EA390
 1.0000000000000000
     4.556000   -0.000000    0.000000
     0.032681    4.555883   -0.000000
    -0.026009   -0.032206    3.931782
 H   O  
   8   4
Direct
  0.166574  0.939256  0.486870
  0.330022  1.074057  0.793322
  0.170354  0.436275 -0.015718
  0.328999  0.574339  0.292333
  0.669925  0.430555  0.793060
  0.828107  0.293220  0.485252
  0.667628  0.930287  0.292733
  0.827124  0.793104 -0.014356
  0.334236  0.908340  0.636616
  0.336757  0.408023  0.136598
  0.834639  0.459278  0.641393
  0.832478  0.959512  0.141374
EA390
 1.0000000000000000
     4.556000   -0.000000    0.000000
     0.032681    4.555883   -0.000000
    -0.026009   -0.032206    3.931782
 H   O  
   8   4
Direct
  0.166574  0.939256  0.486870
  0.330022  1.074057  0.793322
  0.170354  0.436275 -0.015718
  0.328999  0.574339  0.292333
  0.669925  0.430555  0.793060
  0.828107  0.293220  0.485252
  0.667628  0.930287  0.292733
  0.827124  0.793104 -0.014356
  0.334236  0.908340  0.636616
  0.336757  0.408023  0.136598
  0.834639  0.459278  0.641393
  0.832478  0.959512  0.141374
EA390
 1.0000000000000000
     4.556000   -0.000000    0.000000
     0.032681    4.555883   -0.000000
    -0.026009   -0.032206    3.931782
 H   O  
   8   4
Direct
  0.166574  0.939256  0.486870
  0.330022  1.074057  0.793322
  0.170354  0.436275 -0.015718
  0.328999  0.574339  0.292333
  0.669925  0.430555  0.793060
  0.828107  0.293220  0.485252
  0.667628  0.930287  0.292733
  0.827124  0.793104 -0.014356
  0.334236  0.908340  0.636616
  0.336757  0.408023  0.136598
  0.834639  0.459278  0.641393
  0.832478  0.959512  0.141374
EA390
 1.0000000000000000
     4.556000   -0.000000    0.000000
     0.032681    4.555883   -0.000000
    -0.026009   -0.032206    3.931782
 H   O  
   8   4
Direct
  0.166574  0.939256  0.486870
  0.330022  1.074057  0.793322
  0.170354  0.436275 -0.015718
  0.328999  0.574339  0.292333
  0.669925  0.430555  0.793060
  0.828107  0.293220  0.485252
  0.667628  0.930287  0.292733
  0.827124  0.793104 -0.014356
  0.334236  0.908340  0.636616
  0.336757  0.408023  0.136598
  0.834639  0.459278  0.641393
  0.832478  0.959512  0.141374
EA390
 1.0000000000000000
     4.556000   -0.000000    0.000000
     0.032681    4.555883   -0.000000
    -0.026009   -0.032206    3.931782
 H   O  
   8   4
Direct
  0.166574  0.939256  0.486870
  0.330022  1.074057  0.793322
  0.170354  0.436275 -0.015718
  0.328999  0.574339  0.292333
  0.669925  0.430555  0.793060
  0.828107  0.293220  0.485252
  0.667628  0.930287  0.292733
  0.827124  0.793104 -0.014356
  0.334236  0.908340  0.636616
  0.336757  0.408023  0.136598
  0.834639  0.459278  0.641393
  0.832478  0.959512  0.141374
EA390
 1.0000000000000000
     4.556000   -0.000000    0.000000
     0.032681    4.555883   -0.000000
    -0.026009   -0.032206    3.931782
 H   O  
   8   4
Direct
  0.166574  0.939256  0.486870
  0.330022  1.074057  0.793322
  0.170354  0.436275 -0.015718
  0.328999  0.574339  0.292333
  0.669925  0.430555  0.793060
  0.828107  0.293220  0.485252
  0.667628  0.930287  0.292733
  0.827124  0.793104 -0.014356
  0.334236  0.908340  0.636616
  0.336757  0.408023  0.136598
  0.834639  0.459278  0.641393
  0.832478  0.959512  0.141374
EA390
 1.0000000000000000
     4.556000   -0.000000    0.000000
     0.032681    4.555883   -0.000000
    -0.026009   -0.032206    3.931782
 H   O  
   8   4
Direct
  0.166574  0.939256  0.486870
  0.330022  1.074057  0.793322
  0.170354  0.436275 -0.015718
  0.328999  0.574339  0.292333
  0.669925  0.430555  0.793060
  0.828107  0.293220  0.485252
  0.667628  0.930287  0.292733
  0.827124  0.793104 -0.014356
  0.334236  0.908340  0.636616
  0.336757  0.408023  0.136598
  0.834639  0.459278  0.641393
  0.832478  0.959512  0.141374
EA390
 1.0000000000000000
     4.556000   -0.000000    0.000000
     0.032681    4.555883   -0.000000
    -0.026009   -0.032206    3.931782
 H   O  
   8   4
Direct
  0.166574  0.939256  0.486870
  0.330022  1.074057  0.793322
  0.170354  0.436275 -0.015718
  0.328999  0.574339  0.292333
  0.669925  0.430555  0.793060
  0.828107  0.293220  0.485252
  0.667628  0.930287  0.292733
  0.827124  0.793104 -0.014356
  0.334236  0.908340  0.636616
  0.336757  0.408023  0.136598
  0.834639  0.459278  0.641393
  0.832478  0.959512  0.141374
EA390
 1.0000000000000000
     4.556000   -0.000000    0.000000
     0.032681    4.555883   -0.000000
    -0.026009   -0.032206    3.931782
 H   O  
   8   4
Direct
  0.166574  0.939256  0.486870
  0.330022  1.074057  0.793322
  0.170354  0.436275 -0.015718
  0.328999  0.574339  0.292333
  0.669925  0.430555  0.793060
  0.828107  0.293220  0.485252
  0.667628  0.930287  0.292733
  0.827124  0.793104 -0.014356
  0.334236  0.908340  0.636616
  0.336757  0.408023  0.136598
  0.834639  0.459278  0.641393
  0.832478  0.959512  0.141374
