EA0
 1.0000000000000000
     2.943781   -0.000000   -0.000000
     0.000000    5.624977   -0.000000
     0.000000    0.000000    4.928478
 H   O  
   8   4
Direct
  0.621951  0.695850  0.420055
  0.553510  0.899391  0.219349
  0.378049  0.195850  0.079945
  0.446490  0.399391  0.280651
  0.493030  0.292892  0.604353
  0.296682  0.056302  0.700542
  0.506970  0.792892  0.895647
  0.703318  0.556302  0.799458
  0.778740  0.829060  0.337996
  0.221260  0.329060  0.162004
  0.256088  0.226506  0.717705
  0.743912  0.726506  0.782295
EA1
 1.0000000000000000
     2.796374   -0.000000   -0.000000
     0.000000   10.436348   -0.000000
     0.000000    0.000000    2.796374
 H   O  
   8   4
Direct
  0.550754  0.143460  0.275169
  0.404439  0.092224 -0.214709
  0.050754  0.356540 -0.275169
 -0.095561  0.407776  0.214709
 -0.262633  0.634043  0.102781
  0.193982  0.660110 -0.180045
  0.237367  0.865957 -0.102781
  0.693982  0.839890  0.180045
  0.544807  0.166316 -0.060461
  0.044807  0.333684  0.060461
  0.068652  0.607847  0.077263
  0.568652  0.892153 -0.077263
EA2
 1.0000000000000000
     2.732497   -0.000000   -0.000000
     0.000000    2.732497   -0.000000
     0.000000    0.000000   10.929988
 H   O  
   8   4
Direct
  0.223757  0.178008  0.740162
 -0.115060 -0.264672  0.749114
  0.178008 -0.223757  0.240162
 -0.264672  0.115060  0.249114
 -0.223757 -0.178008 -0.009838
  0.115060  0.264672 -0.000886
 -0.178008  0.223757  0.490162
  0.264672 -0.115060  0.499114
 -0.108697  0.086664  0.760723
  0.086664  0.108697  0.260723
  0.108697 -0.086664  0.010723
 -0.086664 -0.108697  0.510723
EA3
 1.0000000000000000
     4.868772   -0.000000   -0.000000
     0.000000    4.868772   -0.000000
     0.000000    0.000000    3.442709
 H   O  
   8   4
Direct
 -0.147231  0.309581  0.455017
  0.099080  0.158051  0.626230
  0.309581  0.147231  0.044983
  0.158051 -0.099080 -0.126230
  0.147231  0.690419  0.455017
 -0.099080  0.841949  0.626230
  0.690419 -0.147231  0.044983
  0.841949  0.099080 -0.126230
  0.048150  0.282368  0.418752
  0.282368 -0.048150  0.081248
 -0.048150  0.717632  0.418752
  0.717632  0.048150  0.081248
EA4
 1.0000000000000000
     3.683378   -0.000000   -0.000000
     0.000000    3.683378   -0.000000
     0.000000    0.000000    6.015151
 H   O  
   8   4
Direct
  0.108876  0.121029  0.085164
 -0.072701 -0.037999 -0.121108
  0.391124  0.621029  0.835164
  0.572701  0.462001  0.628892
  0.608876  0.621029  0.335164
  0.427299  0.462001  0.128892
 -0.108876  0.121029  0.585164
  0.072701 -0.037999  0.378892
 -0.036175 -0.083030  0.035944
  0.536175  0.416970  0.785944
  0.463825  0.416970  0.285944
  0.036175 -0.083030  0.535944
EA5
 1.0000000000000000
     2.489146   -0.000000   -0.000000
     0.000000    2.489146   -0.000000
     0.000000    0.000000   13.171598
 H   O  
   8   4
Direct
  0.446860  0.053106  0.808168
  0.436717 -0.155254  0.699194
  0.053140  0.053106 -0.058168
  0.063283 -0.155254  0.050806
  0.520409  0.623901  0.445027
  0.593370  0.290485  0.541305
 -0.020409  0.623901  0.304973
 -0.093370  0.290485  0.208695
  0.616424  0.102148  0.742638
 -0.116424  0.102148  0.007362
  0.386221  0.585614  0.513668
  0.113779  0.585614  0.236332
EA6
 1.0000000000000000
     5.783505    0.000000    0.000000
     0.695454    2.962406   -0.000000
    -2.254522    1.091774    4.763251
 H   O  
   8   4
Direct
 -0.018531  0.397325  0.343215
  0.116186  0.271487  0.158639
  0.614199  0.361939  0.169400
  0.476899  0.114645  0.300576
  0.350541  0.676014  0.798622
  0.512510  0.681921  0.636386
  1.044949  0.560881  0.699951
  0.907329  0.870937  0.834761
  0.076795  0.133989  0.300946
  0.583352  0.326216  0.332824
  0.462499  0.839265  0.762192
  0.873273  0.765382  0.662489
EA7
 1.0000000000000000
     4.813059   -0.000000    0.000000
     0.000000    3.568602   -0.000000
    -0.544712    0.000000    4.751380
 H   O  
   8   4
Direct
  0.166944  0.702888  0.276326
  0.323538  0.365121  0.176675
  0.223744 -0.202888  0.782926
  0.380338  0.134879  0.683275
  0.783819 -0.188926  0.312571
  0.666655  0.123147  0.114975
  0.840619  0.688926  0.819171
  0.723455  0.376853  0.621575
  0.174319  0.431991  0.287099
  0.231119  0.068009  0.793699
  0.714325  0.065779  0.312554
  0.771125  0.434221  0.819154
EA8
 1.0000000000000000
     5.406533   -0.000000   -0.000000
     0.000000    5.406533   -0.000000
     0.000000    0.000000    2.791910
 H   O  
   8   4
Direct
 -0.042169  0.101653  0.185408
  0.013336 -0.139697 -0.077106
  0.368198  0.451916  0.577328
  0.614541  0.497361  0.325159
 -0.095121  0.538454  0.450797
  0.081865  0.399382  0.120782
  0.461546  0.095121  0.549203
  0.600618 -0.081865  0.879218
  0.028833  0.038044 -0.108302
  0.517261  0.550723  0.597513
  0.013256  0.562164  0.178421
  0.437836 -0.013256  0.821579
EA9
 1.0000000000000000
     5.184012   -0.000000   -0.000000
     0.000000    5.184012   -0.000000
     0.000000    0.000000    3.036736
 H   O  
   8   4
Direct
  0.213922  0.315976  0.181016
  0.275031  0.113910 -0.169386
  0.815976  0.286078  0.318984
  0.613910  0.224969  0.669386
  0.286078  0.598224  0.681016
  0.224969  0.800290  0.330614
  0.684024  0.799722 -0.181016
  0.886090  0.860831  0.169386
  0.132347  0.191414 -0.011631
  0.691414  0.367653  0.511631
  0.367653  0.722786  0.488369
  0.808586  0.718147  0.011631
EA10
 1.0000000000000000
     3.007561   -0.000000   -0.000000
     0.000000    5.209096   -0.000000
     0.000000    0.000000    5.209096
 H   O  
   8   4
Direct
  0.264934  0.434385  0.485964
  0.655074  0.607313  0.558220
  0.098375 -0.139666  0.013762
 -0.203981  0.093818 -0.015809
  0.527590  0.389996  0.102798
  0.594091  0.619958 -0.074706
  0.022296  0.091632  0.619832
  0.059984 -0.036497  0.357204
  0.579992  0.458302  0.455816
  0.105606  0.045848  0.002047
  0.378318  0.490046 -0.028092
 -0.082280 -0.055135  0.522963
EA11
 1.0000000000000000
     2.956427   -0.000000    0.000000
     0.000000    5.707382   -0.000000
     1.477655   -0.000000    4.836542
 H   O  
   8   4
Direct
  0.092793  0.107198  0.856599
  0.629604  0.081081  0.752397
  0.407207  0.607198  0.643401
 -0.129604  0.581081  0.747603
  0.860442  0.966247  0.198982
  0.516410  0.760164  0.261101
  0.639558  0.466247  0.301018
  0.983590  0.260164  0.238899
  0.367202  0.159122  0.711204
  0.132798  0.659122  0.788796
  0.533548  0.926189  0.219717
  0.966452  0.426189  0.280283
EA12
 1.0000000000000000
     5.094839   -0.000000   -0.000000
     0.000000    5.094839   -0.000000
     0.000000    0.000000    3.143969
 H   O  
   8   4
Direct
  0.032682  0.206195  0.729167
  0.041472  0.289982  0.263256
 -0.032682  0.793805  0.270833
 -0.041472  0.710018  0.736744
  0.793805 -0.032682 -0.229167
  0.710018 -0.041472  0.236744
  0.206195  0.032682  0.229167
  0.289982  0.041472 -0.236744
 -0.074154  0.283823  0.507576
  0.074154  0.716177  0.492424
  0.716177  0.074154 -0.007576
  0.283823 -0.074154  0.007576
EA13
 1.0000000000000000
     3.864475   -0.000000   -0.000000
     0.000000    3.864475   -0.000000
     0.000000    0.000000    5.464596
 H   O  
   8   4
Direct
  0.477181  0.200874  0.519716
  0.465058 -0.170082  0.424164
  0.200874  0.477181  0.019716
 -0.170082  0.465058 -0.075836
  0.101602  0.133532  0.667849
 -0.065803 -0.189482  0.776602
  0.133532  0.101602  0.167849
 -0.189482 -0.065803  0.276602
  0.557761 -0.030792  0.556120
 -0.030792  0.557761  0.056120
 -0.035799  0.055950  0.805549
  0.055950 -0.035799  0.305549
EA14
 1.0000000000000000
     2.819484   -0.000000    0.000000
     0.000000    7.595408   -0.000000
    -0.957353    0.000000    3.810820
 H   O  
   8   4
Direct
  0.804774  0.093118  0.976575
  0.598937  0.186371  0.627704
  0.163288  0.860536  0.030500
  0.394653  0.867308  0.424240
  0.487998  0.646471  0.902997
  0.064536  0.606114  0.588183
  0.683571  0.385866  0.482073
  0.683908  0.431097  0.103626
  0.626689  0.071210  0.736621
  0.411659  0.921456  0.204361
  0.417067  0.598116  0.667920
  0.662921  0.332338  0.255201
EA15
 1.0000000000000000
     4.035320   -0.000000    0.000000
    -2.017660    3.494690   -0.000000
     0.000000    0.000000    5.786987
 H   O  
   8   4
Direct
  0.120988  0.028931  0.871718
 -0.106005 -0.119062  0.647659
  0.120988  0.028931  0.371718
 -0.106005 -0.119062  0.147659
  0.787655  0.362264  0.552072
  0.560661  0.214272  0.328013
  0.787655  0.362264  1.052072
  0.560661  0.214272  0.828013
 -0.014983  0.090131  0.757029
 -0.014983  0.090131  0.257029
  0.651684  0.423464  0.437384
  0.651684  0.423464  0.937384
EA16
 1.0000000000000000
     4.868756    0.000000   -0.000000
    -2.434378    4.216467    0.000000
     0.000000   -2.810978    3.975323
 H   O  
   8   4
Direct
  0.071370  0.391501  0.473264
  0.182999  0.152824  0.225634
  0.321370  0.891501  0.223264
  0.432999  0.652824 -0.024366
  0.821370  0.891501  0.723264
  0.932999  0.652824  0.475634
  0.571370  0.391501  0.973264
  0.682999  0.152824  0.725634
  0.120630  0.205675  0.426102
  0.370630  0.705675  0.176102
  0.870630  0.705675  0.676102
  0.620630  0.205675  0.926102
EA17
 1.0000000000000000
     6.567206    0.000000    0.000000
     0.000000    5.111968    0.000000
     0.000000    0.000000    2.430918
 H   O  
   8   4
Direct
  0.119458  0.917049  0.515768
  0.213661  1.053757  0.018918
  0.254842  0.417049  0.515768
  0.349045  0.553757  0.018918
  0.754842  0.010571  1.015768
  0.849045  0.147278  0.518918
  0.619458  0.510571  1.015768
  0.713661  0.647278  0.518918
  0.213805  0.888911  0.215313
  0.349189  0.388911  0.215313
  0.849189 -0.017567  0.715313
  0.713805  0.482433  0.715313
EA18
 1.0000000000000000
     4.044408   -0.000000    0.000000
    -2.022204    3.502560   -0.000000
     0.000000    0.000000    5.761009
 H   O  
   8   4
Direct
  0.330543  0.581616  0.788600
  0.408575  0.841307  0.578959
  0.663877  0.248283  0.458694
  0.741908  0.507974  0.249053
 -0.002790 -0.085051  0.623647
  0.075242  0.174641  0.414006
 -0.002790 -0.085051  0.123647
  0.075242  0.174641 -0.085994
  0.260882  0.577077  0.627300
  0.594215  0.243743  0.297394
 -0.072452 -0.089590  0.462347
 -0.072452 -0.089590 -0.037653
EA19
 1.0000000000000000
     4.337569    0.000000    0.000000
     0.000000    4.337569    0.000000
     0.000000    0.000000    4.337569
 H   O  
   8   4
Direct
  0.621858  0.627674  0.790923
  0.799095  0.913966  0.688652
  0.621858  0.127674  0.290923
  0.799095  0.413966  0.188652
  0.121858  0.627674  0.290923
  0.299095  0.913966  0.188652
  0.121858  0.127674  0.790923
  0.299095  0.413966  0.688652
  0.829047  0.708360  0.770425
  0.829047  0.208360  0.270425
  0.329047  0.708360  0.270425
  0.329047  0.208360  0.770425
EA20
 1.0000000000000000
     4.337569    0.000000    0.000000
     0.000000    4.337569    0.000000
     0.000000    0.000000    4.337569
 H   O  
   8   4
Direct
 -0.178979 -0.031152 -0.007409
  0.151602  0.032827  0.094857
 -0.178979  0.468848  0.492591
  0.151602  0.532827  0.594857
  0.321021  0.468848 -0.007409
  0.651602  0.532827  0.094857
  0.321021 -0.031152  0.492591
  0.651602  0.032827  0.594857
  0.027377 -0.001675 -0.087448
  0.027377  0.498325  0.412552
  0.527377  0.498325 -0.087448
  0.527377 -0.001675  0.412552
EA21
 1.0000000000000000
     4.779216   -0.000000    0.000000
     2.054502    4.315081   -0.000000
     0.670212   -2.594588    3.957250
 H   O  
   8   4
Direct
  0.578205 -0.182799  0.499948
  0.504891  0.168928  0.515945
  0.328205  0.317201  0.249948
  0.254891  0.668928  0.265945
  0.828205  0.317201  0.749948
  0.754891  0.668928  0.765945
  0.078205 -0.182799 -0.000052
  0.004891  0.168928  0.015945
  0.416904  0.013871  0.484107
  0.166904  0.513871  0.234107
  0.666904  0.513871  0.734107
 -0.083096  0.013871 -0.015893
EA22
 1.0000000000000000
     4.868756    0.000000    0.000000
    -0.000000    4.868756   -0.000000
    -2.434378    2.434378    3.442731
 H   O  
   8   4
Direct
  0.265776  0.048154  0.469966
 -0.005381  0.104647  0.086120
  1.015776  0.798154  0.969966
  0.744619  0.854647  0.586120
  0.515776  0.298154  0.969966
  0.244619  0.354647  0.586120
  0.765776  0.548154  0.469966
  0.494619  0.604647  0.086120
  0.114605  0.222198  0.193915
  0.864605  0.972198  0.693915
  0.364605  0.472198  0.693915
  0.614605  0.722198  0.193915
EA23
 1.0000000000000000
     4.337569    0.000000    0.000000
     0.000000    4.337569    0.000000
     0.000000    0.000000    4.337569
 H   O  
   8   4
Direct
  0.377927  0.120797  0.249632
  0.141366  0.365547  0.338917
  0.377927  0.620797  0.749632
  0.141366  0.865547  0.838917
  0.877927  0.120797  0.749632
  0.641366  0.365547  0.838917
  0.877927  0.620797  0.249632
  0.641366  0.865547  0.338917
  0.230708  0.263656  0.161451
  0.230708  0.763656  0.661451
  0.730708  0.263656  0.661451
  0.730708  0.763656  0.161451
EA24
 1.0000000000000000
     4.734341    0.000000    0.000000
     1.498911    4.490796   -0.000000
     1.736518   -2.159805    3.838454
 H   O  
   8   4
Direct
  0.302478  0.583022  0.132964
  0.171912  0.385471  0.296514
  0.552478  0.083022  0.382964
  0.421912 -0.114529  0.546514
  0.802478  0.583022  0.632964
  0.671912  0.385471  0.796514
  0.052478  0.083022 -0.117036
 -0.078088 -0.114529  0.046514
  0.275610  0.531507  0.320521
  0.525610  0.031507  0.570521
  0.775610  0.531507  0.820521
  0.025610  0.031507  0.070521
EA25
 1.0000000000000000
     4.868756    0.000000    0.000000
     2.434378    4.216467   -0.000000
     2.434378    1.405489    3.975323
 H   O  
   8   4
Direct
 -0.116399  0.184659  0.001227
  0.048698 -0.160229 -0.039662
  0.383601  0.684659  0.501227
  0.548698  0.339771  0.460338
  0.133601  0.434659  0.251227
  0.298698  0.089771  0.210338
  0.633601  0.934659  0.751227
  0.798698  0.589771  0.710338
  0.067701 -0.024429  0.038435
  0.567701  0.475571  0.538435
  0.317701  0.225571  0.288435
  0.817701  0.725571  0.788435
EA26
 1.0000000000000000
     4.337569    0.000000    0.000000
     0.000000    4.337569    0.000000
     0.000000    0.000000    4.337569
 H   O  
   8   4
Direct
  0.937999  0.870242  1.112768
  0.995397  1.078072  0.834654
  0.437999  0.374728  0.117254
  0.495397  0.582557 -0.160861
 -0.057516  0.370242  0.617254
 -0.000118  0.578072  0.339139
  0.442484 -0.125272  0.612768
  0.499882  0.082557  0.334654
  1.059876  1.044958  1.045850
  0.559876  0.549443  0.050335
  0.064362  0.544958  0.550335
  0.564362  0.049443  0.545850
EA27
 1.0000000000000000
     3.929881   -0.000000    0.000000
     0.000000    3.929881    0.000000
     0.000000    0.000000    5.284214
 H   O  
   8   4
Direct
  0.164506  0.090950  0.197731
 -0.198225 -0.004022  0.273091
  0.164506  0.090950  0.697731
 -0.198225 -0.004022  0.773091
  0.664506  0.590950 -0.052269
  0.301775  0.495978  0.023091
  0.664506  0.590950  0.447731
  0.301775  0.495978  0.523091
  0.033720 -0.086928  0.279177
  0.033720 -0.086928  0.779177
  0.533720  0.413072  0.029177
  0.533720  0.413072  0.529177
EA28
 1.0000000000000000
     4.320078    0.000000    0.000000
     0.000000    4.320078    0.000000
     0.000000    0.000000    4.372762
 H   O  
   8   4
Direct
  0.582483  0.790229  0.501066
  0.932902  0.768202  0.462028
  0.078775  0.286521  0.501066
  0.429194  0.264494  0.462028
  0.578775  0.290229  1.001066
  0.929194  0.268202  0.962028
  0.082483  0.786521  1.001066
  0.432902  0.764494  0.962028
  0.740177  0.697131  0.373288
  0.236468  0.193423  0.373288
  0.736468  0.197131  0.873288
  0.240177  0.693423  0.873288
EA29
 1.0000000000000000
     4.868756    0.000000    0.000000
    -2.434378    4.216467   -0.000000
     0.000000   -2.810978    3.975323
 H   O  
   8   4
Direct
  0.653762  0.552383  0.176804
  0.860768  0.542813  0.403076
  0.403762  0.052383  0.426804
  0.610768  0.042813  0.653076
  0.153762  0.552383  0.676804
  0.360768  0.542813  0.903076
 -0.096238  0.052383 -0.073196
  0.110768  0.042813  0.153076
  0.735470  0.404804  0.170120
  0.485470 -0.095196  0.420120
  0.235470  0.404804  0.670120
 -0.014530 -0.095196 -0.079880
EA30
 1.0000000000000000
     4.869000   -0.000000   -0.000000
     0.000000    4.869000   -0.000000
     0.000000    0.000000    3.443000
 H   O  
   8   4
Direct
 -0.117992  0.402040  0.561293
 -0.070712  0.092693  0.624072
  0.041804 -0.025577  0.234338
 -0.089896 -0.207575 -0.081760
 -0.298886  0.784135  0.472308
 -0.440143  1.006929  0.719600
  0.507528  0.110680  0.273189
  0.685209  0.256799 -0.033778
  0.024788  0.267687  0.614099
  0.069239 -0.194120  0.087726
 -0.452368  0.814195  0.647698
  0.511862  0.270659  0.104665
EA31
 1.0000000000000000
     4.869000   -0.000000   -0.000000
    -2.434500    4.216678   -0.000000
     0.000000   -2.811118    3.975522
 H   O  
   8   4
Direct
  0.612983  0.514215  0.166368
  0.883860  0.607516  0.420025
  0.377734 -0.044414  0.328714
  0.595643  0.012347  0.601932
  0.138789  0.561730  0.718015
  0.380869  0.540927  0.890693
 -0.082714  0.070107 -0.019254
  0.119025 -0.053634  0.061397
  0.748798  0.426250  0.182905
  0.513033 -0.127397  0.359044
  0.243936  0.424917  0.668638
 -0.020415 -0.110218 -0.127868
EA32
 1.0000000000000000
     5.095000   -0.000000   -0.000000
     0.000000    5.095000   -0.000000
     0.000000    0.000000    3.144000
 H   O  
   8   4
Direct
  0.076080  0.235881  0.676562
 -0.143031  0.209142  0.337204
  0.223841  0.692738  0.248330
  0.092867  0.705670  0.691990
  0.649557 -0.197873 -0.144739
  0.635661 -0.364729  0.266339
  0.341355  0.331784  0.211890
  0.382100  0.197696 -0.225061
 -0.113272  0.228944  0.642088
  0.262158  0.691269  0.552360
  0.755757 -0.264088  0.088054
  0.379921  0.163540  0.080276
EA33
 1.0000000000000000
     5.095000   -0.000000   -0.000000
     0.000000    5.095000   -0.000000
     0.000000    0.000000    3.144000
 H   O  
   8   4
Direct
 -0.017863  0.197901  0.760861
 -0.056778  0.245408  0.277933
  0.223685  0.698061  0.226839
  0.076879  0.713054  0.657110
  0.559607 -0.334011  0.063142
  0.799209 -0.178774  0.232123
  0.343026  0.376890  0.187230
  0.374955  0.221319 -0.232612
 -0.150045  0.239898  0.548830
  0.249152  0.684654  0.533630
  0.740405 -0.289532 -0.002324
  0.369970  0.200990  0.075862
EA34
 1.0000000000000000
     5.184000   -0.000000   -0.000000
     0.000000    5.184000   -0.000000
     0.000000    0.000000    3.037000
 H   O  
   8   4
Direct
  0.216944  0.309799  0.145217
  0.231498  0.162527 -0.296119
  0.877693  0.278896  0.337016
  0.651224  0.198453  0.631466
  0.257090  0.650721  0.556953
  0.114741  0.829354  0.238378
  0.673407  0.788556 -0.294836
  0.770228  0.998013  0.019860
  0.196092  0.331398 -0.170524
  0.695345  0.311629  0.387472
  0.281841  0.803167  0.376343
  0.799142  0.819376 -0.063555
EA35
 1.0000000000000000
     4.869000   -0.000000   -0.000000
    -2.434500    4.216678   -0.000000
     0.000000   -2.811118    3.975522
 H   O  
   8   4
Direct
  0.061316  0.382764  0.488635
  0.067116  0.073295  0.173624
  0.329022  0.897258  0.242071
  0.328717  0.581773 -0.073628
  0.845895  0.915096  0.740903
  0.845800  0.599793  0.425310
  0.605938  0.423167  0.992720
  0.605950  0.107511  0.677504
  0.190542  0.275712  0.411570
  0.445582  0.773458  0.166755
  0.893841  0.722759  0.665509
  0.640574  0.220219  0.915150
EA36
 1.0000000000000000
     4.869000   -0.000000   -0.000000
    -2.434500    4.216678   -0.000000
     0.000000   -2.811118    3.975522
 H   O  
   8   4
Direct
  0.091706  0.406096  0.488149
  0.101990  0.096548  0.177839
  0.351777  0.921195  0.241690
  0.351148  0.605680 -0.074302
  0.824185  0.892545  0.742359
  0.823716  0.577268  0.426369
  0.576205  0.395508  0.992654
  0.575161  0.079870  0.676368
  0.140868  0.215270  0.416672
  0.397928  0.727367  0.165717
  0.941059  0.769158  0.666575
  0.696927  0.277171  0.915348
EA37
 1.0000000000000000
     4.779000   -0.000000   -0.000000
     2.054401    4.314890    0.000000
     0.670146   -2.594441    3.957097
 H   O  
   8   4
Direct
  0.677437 -0.243893  0.445654
  0.447791  0.167408  0.575069
  0.331581  0.336185  0.299404
  0.310446  0.655394  0.276875
  0.776397  0.332891  0.736380
  0.831132  0.641035  0.780691
  0.110553 -0.180106 -0.037011
 -0.013112  0.224627  0.091882
  0.471938 -0.069752  0.448038
  0.237500  0.484487  0.207942
  0.706171  0.531722  0.697912
 -0.020933  0.018552 -0.066480
EA38
 1.0000000000000000
     4.779000   -0.000000   -0.000000
     2.054401    4.314890    0.000000
     0.670146   -2.594441    3.957097
 H   O  
   8   4
Direct
  0.464802 -0.069471  0.564986
  0.685883  0.066019  0.486863
  0.283210  0.324762  0.250789
  0.304144  0.645369  0.273594
  0.829122  0.344571  0.822590
  0.786414  0.651235  0.766138
 -0.003900 -0.124630  0.105904
  0.109888  0.063878 -0.030689
  0.529511  0.001607  0.417450
  0.212012  0.497677  0.180138
  0.749904  0.450904  0.694579
 -0.041799 -0.021057 -0.031285
EA39
 1.0000000000000000
     4.340792    0.000000    0.000000
     0.147365    4.338290   -0.000000
     0.171783   -0.153285    4.334682
 H   O  
   8   4
Direct
  0.211030  0.913625  0.511805
  0.154654  0.627207  0.701152
  0.460927  0.410326  0.756897
  0.412207  0.122830  0.946396
  0.710114  0.914443  0.012248
  0.653909  0.627526  0.200879
  0.961527  0.414518  0.261424
  0.905173  0.127800  0.450329
  0.207065  0.689547  0.492688
  0.463786  0.186081  0.738053
  0.707023  0.690425 -0.007293
  0.957277  0.190531  0.241873
EA40
 1.0000000000000000
     4.324288    0.000000    0.000000
     0.000000    4.324288    0.000000
     0.000000    0.000000    4.364624
 H   O  
   8   4
Direct
  1.080577  0.547516  0.297835
  0.758599  0.570760  0.440746
  0.580588  0.547669  0.797595
  0.258647  0.570565  0.940680
  0.584027  0.054762  0.293210
  0.261589  0.069782  0.436429
  1.083613  0.048212  0.794894
  0.761780  0.071506  0.938069
  0.971807  0.636407  0.472483
  0.471794  0.636510  0.972263
  0.473890  0.137544  0.469850
  0.975041  0.137170  0.969551
EA41
 1.0000000000000000
     4.670587    0.000000    0.000000
     1.564892    4.400625    0.000000
     0.469630   -1.713851    3.970347
 H   O  
   8   4
Direct
  0.810157  0.081766  0.755844
  0.961676  0.328843  0.763284
  0.310935  0.080973  0.254496
  0.462587  0.327925  0.261941
  0.063330  0.580163  0.005281
  0.218835  0.822581  0.005347
  0.559049  0.582746  0.506337
  0.710729  0.829699  0.513831
  0.998534  0.120911  0.787117
  0.498389  0.121190  0.288113
  0.254109  0.615843  0.031317
  0.746917  0.622464  0.539014
EA42
 1.0000000000000000
     4.446722    0.000000    0.000000
     1.038433    4.323771    0.000000
     1.038433    0.818563    4.245580
 H   O  
   8   4
Direct
  0.278611  0.658650  0.648602
  0.519811  0.347798  0.654190
 -0.000095  0.400192  0.388616
  0.241105  0.095952  0.452290
  0.539757  0.905839  0.895967
  0.775275  0.591290  0.904133
  0.782827  1.157299  0.154193
  1.021293  0.845060  0.156464
  0.304476  0.435694  0.741307
  0.023262  0.191006  0.519540
  0.558867  0.682401  0.983888
  0.804590  0.933069  0.237985
EA43
 1.0000000000000000
     4.384728    0.000000    0.000000
     0.738069    4.322163    0.000000
     0.234689   -0.788829    4.306797
 H   O  
   8   4
Direct
  0.805795  0.769169  0.737725
  0.942987  0.990135  0.553550
  0.296933  0.778186  0.246424
  0.437930  0.993309  0.057747
 -0.011689  0.278736 -0.020871
  0.308958  0.369527  0.039449
  0.488871  0.280530  0.478200
  0.809859  0.370682  0.538674
  0.759674  0.896878  0.579536
  0.254014  0.901009  0.083876
  0.092224  0.414355  0.121606
  0.593006  0.415980  0.620719
EA44
 1.0000000000000000
     4.339475    0.000000    0.000000
     0.136523    4.337327   -0.000000
     0.043231   -0.137951    4.337067
 H   O  
   8   4
Direct
  0.620208  0.420403  0.975858
  0.287464  0.481070  0.870343
  1.120889  0.420530  0.474961
  0.788135  0.481287  0.369583
  0.874388  0.912309  0.221925
  0.543326  0.979752  0.114978
  0.369089  0.921874  0.726582
  0.036303  0.982622  0.621255
  0.423555  0.513041  1.043922
  0.923747  0.511264  0.543884
  0.679420  1.009519  0.288921
  0.172163  1.013406  0.795224
EA45
 1.0000000000000000
     3.797480    0.000000    0.000000
     0.000000    4.636292    0.000000
     0.000000    0.000000    4.636292
 H   O  
   8   4
Direct
  0.262049  0.795435  0.896611
  0.117080  1.045133  0.716648
  0.762229  0.296576  0.891469
  0.616092  0.552313  0.720974
  0.685763  0.818968  0.340219
  0.733900  1.142100  0.274395
  0.153628  0.509324  0.166623
  0.303990  0.546260  0.475111
  0.334553  0.973581  0.802213
  0.833629  0.478921  0.804874
  0.567679  1.004099  0.353207
  0.101930  0.472452  0.369029
EA46
 1.0000000000000000
     4.529959    0.000000    0.000000
     0.000000    4.529959    0.000000
     0.000000    0.000000    3.977096
 H   O  
   8   4
Direct
  0.101595  0.009179  0.503768
  0.091605  0.349888  0.511461
  0.704744  0.924980  0.349908
  0.540953  0.635725  0.419647
  0.470654  0.263774  0.877064
  0.756463  0.164358  1.049958
  0.163581  0.669764  1.109422
  0.139094  0.736746  0.733623
  0.042130  0.180152  0.372800
  0.576562  0.830531  0.513544
  0.656026  0.162324  0.833875
  0.026885  0.658696  0.921949
EA47
 1.0000000000000000
     5.060038    0.000000    0.000000
     0.000000    5.060038    0.000000
     0.000000    0.000000    3.187741
 H   O  
   8   4
Direct
  0.849547  0.730011  0.501107
  0.860415  0.528566  0.864089
  0.490700  0.701073  0.424422
  0.444642  0.605905 -0.028931
  0.566112  0.017889  0.423119
  0.854700  0.089552  0.516188
  0.255555  0.089946  0.801262
  0.119252  0.022964  1.221495
  0.803375  0.706799  0.795003
  0.395727  0.569918  0.260466
  0.691091  0.163579  0.407540
  0.089282  0.106873  0.951222
EA48
 1.0000000000000000
     4.446777    0.000000    0.000000
     1.100718    4.308393    0.000000
     0.351795   -1.225950    4.259943
 H   O  
   8   4
Direct
  0.529423  0.415675  0.475331
  0.282206  0.697363  0.716974
  1.036873  0.408242 -0.041862
  0.790643  0.681416  0.208912
  0.509259  0.897845 -0.017754
  0.168184  1.013284  0.156734
  1.033268 -0.092127  0.463772
  0.785896  0.187945  0.705857
  0.323269  0.567405  0.499370
  0.827214  0.555420 -0.010068
  0.315918  1.072427  0.024468
  0.831211  0.064717  0.485694
EA49
 1.0000000000000000
     3.845165    0.000000    0.000000
     0.000000    5.076614    0.000000
     0.000000    0.000000    4.181117
 H   O  
   8   4
Direct
  0.594091  0.374943  0.178528
  0.235008  0.362350  0.343289
  0.395498  0.902060  0.588434
  0.496887  0.781144  0.910150
  0.963079  0.487556  0.900408
  0.940708  0.331256  0.587207
  0.850066  0.870475  0.340788
  1.150865  1.044621  0.227339
  0.483414  0.362913  0.386878
  0.514358  0.942989  0.787078
  1.056539  0.332632  0.793948
  0.898511  1.037127  0.235639
EA50
 1.0000000000000000
     4.336455    0.000000    0.000000
     0.000000    4.336455    0.000000
     0.000000    0.000000    4.340987
 H   O  
   8   4
Direct
  0.464593  0.878561  0.846314
  0.716046  0.656016  0.738687
 -0.035290  0.878869  0.346110
  0.216010  0.656052  0.238664
  0.180424  0.224984  0.123021
  0.029306  0.499280 -0.038801
  0.680366  0.225022  0.622972
  0.529443  0.499248  0.460819
  0.680660  0.826956  0.880033
  0.180733  0.827093  0.379918
 -0.006478  0.283514  0.012850
  0.493489  0.283570  0.512752
EA51
 1.0000000000000000
     4.184502    0.000000    0.000000
     0.000000    4.184502    0.000000
    -1.522927    1.522927    4.660651
 H   O  
   8   4
Direct
  0.356679  0.808308  0.848557
  0.641185  1.013464  0.774049
  0.575816  0.097536  0.334388
  0.898582  0.234226  0.282275
  0.078491  0.598028  0.337954
  0.402439  0.728055  0.283297
 -0.171166  0.349289  0.840504
  0.146634  0.485483  0.775947
  0.590418  0.845749  0.929217
  0.819773  0.066775  0.419528
  0.322728  0.566282  0.423466
  0.073660  0.320945  0.919081
EA52
 1.0000000000000000
     4.137371   -0.000000   -0.000000
    -1.704491    4.465467    0.000000
     0.000000   -1.824441    4.417816
 H   O  
   8   4
Direct
  0.611977  0.578622  0.498372
  0.665679  0.375856  0.667564
 -0.021974  0.452273  0.125467
  0.374542  0.596342  0.219292
  0.876058  0.089667  0.249477
  0.920361 -0.117288  0.418038
  0.370682  0.084651  0.749468
  0.415251 -0.122259  0.917921
  0.726223  0.597668  0.685235
  0.173666  0.657774  0.223460
  0.979778  0.105565  0.439331
  0.475528  0.100534  0.938885
EA53
 1.0000000000000000
     4.679213   -0.000000    0.000000
    -1.707858    4.356404    0.000000
     0.101994   -2.419359    4.003914
 H   O  
   8   4
Direct
  0.580817  0.632744  0.582734
  0.275529  0.310234  0.486871
  1.078705  0.634003  0.087381
  0.777680  0.304435 -0.015634
  0.330426  1.132136  0.833176
  0.025176  0.809209  0.736155
  0.830192  1.135103  0.337023
  0.528426  0.806822  0.235320
  0.496218  0.373294  0.476629
  0.999587  0.374660 -0.021381
  0.245941  0.872605  0.726210
  0.750094  0.875721  0.228628
EA54
 1.0000000000000000
     4.868764   -0.000000   -0.000000
     0.000000    4.868764   -0.000000
     0.000000    0.000000    3.442720
 H   O  
   8   4
Direct
  0.462601  0.502407  0.222865
  0.466406  0.457561 -0.215913
  0.462601  0.002407 -0.222865
  0.466406 -0.042439  0.215913
 -0.037399  0.002407  0.222865
 -0.033594 -0.042439 -0.215913
 -0.037399  0.502407 -0.222865
 -0.033594  0.457561  0.215913
  0.570993  0.540032 -0.006952
  0.570993  0.040032  0.006952
  0.070993  0.040032 -0.006952
  0.070993  0.540032  0.006952
EA55
 1.0000000000000000
     6.885461   -0.000000   -0.000000
     0.000000    3.442731   -0.000000
     0.000000    0.000000    3.442731
 H   O  
   8   4
Direct
  0.339231  0.631167  0.558513
  0.151586  0.468961  0.386985
  0.857856  0.569887  0.467418
  0.674283  0.336182  0.552043
 -0.056028  0.189631  0.062936
  0.032491 -0.216160  0.039111
  0.485979  0.203882  0.100614
  0.526531 -0.222600  0.010548
  0.259183  0.399872  0.554502
  0.717861  0.593931  0.480539
  0.023537  0.026529 -0.102047
  0.487490  0.018718 -0.111162
EA56
 1.0000000000000000
     2.796374   -0.000000   -0.000000
     0.000000   10.436348   -0.000000
     0.000000    0.000000    2.796374
 H   O  
   8   4
Direct
  0.506270  0.209414  0.016876
  0.512740  0.065871  0.121358
  0.006270  0.709414  0.016876
  0.012740  0.565871  0.121358
  0.568312  0.909773 -0.219511
  0.309260  0.838569  0.180770
  0.068312  0.409773 -0.219511
 -0.190740  0.338569  0.180770
  0.480990  0.126715 -0.138235
 -0.019010  0.626715 -0.138235
  0.622428  0.849658  0.038741
  0.122428  0.349658  0.038741
EA57
 1.0000000000000000
     3.868305    0.000000   -0.000000
     0.000000    3.868305   -0.000000
     0.000000    0.000000    5.453781
 H   O  
   8   4
Direct
  0.188490 -0.002731  0.214330
 -0.184483  0.085208  0.281092
  0.688490  0.497269  0.175516
  0.315517  0.585208  0.242278
  0.688490  0.497269  0.714330
  0.315517  0.585208  0.781092
  0.188490 -0.002731  0.675516
 -0.184483  0.085208  0.742278
 -0.004007 -0.082476  0.312799
  0.495993  0.417524  0.273985
  0.495993  0.417524  0.812799
 -0.004007 -0.082476  0.773985
EA58
 1.0000000000000000
     4.337569    0.000000    0.000000
     0.000000    4.337569    0.000000
     0.000000    0.000000    4.337569
 H   O  
   8   4
Direct
 -0.154601  0.487043  0.594812
  0.157282  0.429253  0.442417
  0.345399  0.487043  0.094812
  0.657282  0.429253 -0.057583
  0.345399 -0.012957  0.594812
  0.657282 -0.070747  0.442417
 -0.154601 -0.012957  0.094812
  0.157282 -0.070747 -0.057583
 -0.002681  0.583704  0.462771
  0.497319  0.583704 -0.037229
  0.497319  0.083704  0.462771
 -0.002681  0.083704 -0.037229
EA59
 1.0000000000000000
     4.747460    0.000000    0.000000
     0.000000    5.341828    0.000000
     0.000000    0.000000    3.218014
 H   O  
   8   4
Direct
  0.283862  0.385689 -0.211312
  0.220651  0.578001  0.126894
  0.783862 -0.023689  0.288688
  0.720651  0.168622  0.626894
  0.281019  0.885689  0.288688
  0.217808  1.078001  0.626894
  0.781019  0.476311 -0.211312
  0.717808  0.668622  0.126894
  0.249752  0.400378  0.084419
  0.749752 -0.009000  0.584419
  0.246909  0.900378  0.584419
  0.746909  0.491000  0.084419
EA60
 1.0000000000000000
     4.341000   -0.000000   -0.000000
     0.147334    4.338499    0.000000
     0.171790   -0.153253    4.334891
 H   O  
   8   4
Direct
  0.148865  0.917959  0.602883
  0.206485  0.609034  0.762692
  0.881432  0.371841  0.677583
  0.589816  0.215520  0.805120
  0.633742  0.928210  0.090720
  0.709832  0.622177  0.249382
  1.387544  0.392009  0.186234
  1.098406  0.231192  0.313374
  0.293353  0.741626  0.608285
  0.740773  0.207193  0.633468
  0.788641  0.760812  0.096282
  1.250695  0.223899  0.142931
EA61
 1.0000000000000000
     4.341000   -0.000000   -0.000000
     0.147334    4.338499    0.000000
     0.171790   -0.153253    4.334891
 H   O  
   8   4
Direct
  0.277892  0.816379  0.487154
  0.037625  0.909715  0.749647
  0.889580  0.420527  0.696525
  0.597015  0.273562  0.834178
  0.772647  0.802169  0.000102
  0.533283  0.911549  0.258201
  1.383671  0.401277  0.189472
  1.089762  0.257584  0.328173
  0.193685  0.752415  0.685419
  0.759440  0.243158  0.674491
  0.683494  0.746879  0.199443
  1.251007  0.225867  0.167488
EA62
 1.0000000000000000
     4.869000   -0.000000   -0.000000
    -2.434500    4.216678   -0.000000
     0.000000   -2.811118    3.975522
 H   O  
   8   4
Direct
  0.091025  0.408824  0.493820
  0.097399  0.100288  0.178486
  0.324250  0.893713  0.238617
  0.325502  0.578533 -0.075825
  0.852945  0.917796  0.745238
  0.852957  0.602449  0.429797
  0.576339  0.395475  0.987557
  0.578741  0.080413  0.674163
  0.148243  0.224273  0.418991
  0.446915  0.777664  0.163030
  0.890988  0.717468  0.668100
  0.692748  0.271265  0.914962
EA63
 1.0000000000000000
     4.869000   -0.000000   -0.000000
    -2.434500    4.216678   -0.000000
     0.000000   -2.811118    3.975522
 H   O  
   8   4
Direct
  0.060511  0.379426  0.481871
  0.072460  0.071247  0.171930
  0.356125  0.923339  0.246072
  0.354583  0.608172 -0.071161
  0.816855  0.888069  0.739525
  0.816181  0.572739  0.423384
  0.603813  0.422464  0.996495
  0.601635  0.107510  0.678432
  0.186824  0.267495  0.412028
  0.393281  0.722129  0.167141
  0.939775  0.772634  0.661686
  0.646909  0.225905  0.917874
EA64
 1.0000000000000000
     4.869000   -0.000000   -0.000000
    -2.434500    4.216678   -0.000000
     0.000000   -2.811118    3.975522
 H   O  
   8   4
Direct
  0.059669  0.381562  0.486290
  0.066619  0.072297  0.172240
  0.355504  0.922613  0.242175
  0.355597  0.606933 -0.072931
  0.850173  0.918071  0.743497
  0.849503  0.602936  0.427168
  0.578990  0.395943  0.994718
  0.578156  0.080339  0.678607
  0.189710  0.275476  0.410115
  0.392771  0.721746  0.165321
  0.888905  0.718182  0.665642
  0.698943  0.276565  0.917873
EA65
 1.0000000000000000
     4.869000   -0.000000   -0.000000
    -2.434500    4.216678   -0.000000
     0.000000   -2.811118    3.975522
 H   O  
   8   4
Direct
  0.092627  0.406564  0.490481
  0.102246  0.097273  0.179207
  0.326117  0.895471  0.242780
  0.324669  0.579720 -0.073789
  0.820461  0.888936  0.740940
  0.820916  0.573845  0.425686
  0.604176  0.423857  0.990542
  0.604075  0.108260  0.675153
  0.141020  0.214976  0.417911
  0.447852  0.778533  0.164819
  0.943342  0.773289  0.664245
  0.640205  0.221975  0.913106
EA66
 1.0000000000000000
     5.184000   -0.000000   -0.000000
     0.000000    5.184000   -0.000000
     0.000000    0.000000    3.037000
 H   O  
   8   4
Direct
  0.213995  0.127562  0.109429
  0.257211  0.329633 -0.256141
  0.881540  0.343422  0.206211
  0.705833  0.195301  0.524038
  0.276488  0.654056  0.502164
  0.145731  0.841139  0.182021
  0.633526  0.822134 -0.310989
  0.762057  1.004854  0.019939
  0.215556  0.312047  0.054229
  0.714419  0.352797  0.350813
  0.287493  0.829047  0.390417
  0.791229  0.846292 -0.143146
EA67
 1.0000000000000000
     5.184000   -0.000000   -0.000000
     0.000000    5.184000   -0.000000
     0.000000    0.000000    3.037000
 H   O  
   8   4
Direct
  0.232441  0.370085 -0.119962
  0.229387  0.080717 -0.001406
  0.868429  0.353397  0.163381
  0.754382  0.181704  0.525466
  0.280203  0.663476  0.543604
  0.123732  0.828999  0.222477
  0.634007  0.840117 -0.292197
  0.786922  1.003114  0.038536
  0.203648  0.199921 -0.244210
  0.722085  0.339841  0.362394
  0.297173  0.805213  0.336993
  0.796795  0.845600 -0.133969
EA68
 1.0000000000000000
     4.137000   -0.000000   -0.000000
    -1.704584    4.465735    0.000000
     0.000000   -1.824540    4.418083
 H   O  
   8   4
Direct
  0.570670  0.529450  0.473911
  0.680852  0.421218  0.714085
  0.077769  0.584192  0.159148
  0.389805  0.482676  0.126002
  0.880763  0.090262  0.213613
  0.909773 -0.055791  0.448415
  0.393103  0.044836  0.767626
  0.517634 -0.028434  1.028509
  0.740718  0.602986  0.651319
  0.331966  0.673324  0.198935
  1.038390  0.115213  0.380288
  0.590848  0.118715  0.923152
EA69
 1.0000000000000000
     4.137000   -0.000000   -0.000000
    -1.704584    4.465735    0.000000
     0.000000   -1.824540    4.418083
 H   O  
   8   4
Direct
  0.691993  0.628359  0.530272
  0.749168  0.466095  0.743027
  0.055318  0.387022  0.025005
  0.449077  0.477799  0.072345
  0.918756  0.089815  0.278251
  1.025558 -0.019783  0.518299
  0.396465  0.085110  0.726264
  0.406423 -0.068641  0.958937
  0.873278  0.610756  0.645073
  0.268888  0.555253  0.153724
  1.111483  0.140947  0.429147
  0.549858  0.095725  0.888182
EA70
 1.0000000000000000
     4.336361    0.000000    0.000000
     0.000000    4.336361    0.000000
     0.000000    0.000000    4.340458
 H   O  
   8   4
Direct
  0.364979  0.696058  0.442304
  0.388936  0.619851  0.094536
  0.864597  0.694114  0.942478
  0.888131  0.619128  0.594447
  0.155787  0.298918  0.538569
  0.018658  0.115619  0.264050
  0.657669  0.296472  1.037393
  0.519462  0.113690  0.763560
  0.505088  0.704118  0.267137
  1.004604  0.702435  0.767264
 -0.026667  0.186322  0.471987
  0.474770  0.184194  0.971531
EA71
 1.0000000000000000
     4.868806    0.000000    0.000000
     0.000000    4.868806    0.000000
     0.000000    0.000000    3.442862
 H   O  
   8   4
Direct
  0.426565  0.704126  0.736487
  0.160158  0.787119  0.524148
  0.271696  0.280920  0.260583
  0.356257  0.286730 -0.167786
  0.698213  0.508646  0.454166
  0.784695  0.224630  0.600756
  0.787950  0.821561  0.801868
  0.996197  0.955861  1.069474
  0.336073  0.697122  0.485358
  0.318476  0.161258  0.045166
  0.817309  0.419568  0.642106
  0.805263  0.899055  1.061108
EA72
 1.0000000000000000
     5.146172    0.000000    0.000000
    -0.091271    5.145362    0.000000
     0.000000   -0.054684    3.082305
 H   O  
   8   4
Direct
  0.357169  0.689009  0.777634
  0.214530  0.626175  0.351535
  0.659183  0.775749  0.039818
  0.951803  0.767699 -0.051992
  0.079257  0.206352  0.322985
  0.120954  0.331041 -0.121105
  0.584568  0.211394  0.823312
  0.626044  0.336091  0.379104
  0.365345  0.578291  0.520137
  0.822522  0.721527  0.164334
  0.118650  0.164755  0.022221
  0.622987  0.169681  0.522257
EA73
 1.0000000000000000
     5.170912    0.000000    0.000000
    -0.031172    5.170818   -0.000000
     0.000000   -0.018402    3.052452
 H   O  
   8   4
Direct
  0.293835  0.283650  0.456271
  0.309525  0.040657  0.165879
  0.040489  0.772935  0.708203
  0.051480  0.532971  0.410638
  0.542933  0.783387  0.206310
  0.558636  0.540466 -0.084260
  0.789312  0.278594  0.956253
  0.804786  0.035665  0.665778
  0.332872  0.226917  0.160227
  0.071945  0.719519  0.407862
  0.583704  0.726490 -0.088968
  0.827397  0.221947  0.659775
EA74
 1.0000000000000000
     4.356611    0.000000    0.000000
    -0.491175    4.328835   -0.000000
     0.000000   -0.494327    4.328476
 H   O  
   8   4
Direct
  0.839450  0.542898  0.996944
  0.670930  0.500439  0.683090
  0.343444  0.545519  0.501225
  0.180263  0.508981  0.184561
  1.093901  0.046519  0.750970
  0.930856  0.009974  0.434239
  0.589114  0.041985  0.250735
  0.426003  0.005183 -0.065926
  0.638055  0.545441  0.902977
  0.146086  0.559194  0.403603
  0.895995  0.058083  0.653476
  0.390899  0.052389  0.153304
EA75
 1.0000000000000000
     4.557747    0.000000    0.000000
    -1.632954    4.255175   -0.000000
     0.000000   -1.749068    4.208778
 H   O  
   8   4
Direct
  0.583374  0.875776  0.133093
  0.623578  0.955462  0.491298
  0.087978  0.880280  0.633192
  0.128346  0.960263  0.991492
  0.655073  0.641092  0.649491
  0.549901  0.351199  0.315458
  0.156148  0.642744  1.149322
  0.049697  0.352366  0.815537
  0.711938  0.871434  0.299939
  0.217303  0.877149  0.800217
  0.633058  0.406793  0.533749
  0.133858  0.408324  1.033628
EA76
 1.0000000000000000
     4.483393   -0.000000   -0.000000
    -1.346893    4.276295    0.000000
     0.000000   -1.412756    4.257110
 H   O  
   8   4
Direct
  1.006273  0.563075  0.168842
  0.689082  0.410893  0.279575
  0.515735  0.576854  0.676841
  0.197000  0.417258  0.781019
  0.265788  0.076826  0.925912
 -0.052907 -0.082905  1.030071
  0.760696  0.071559  0.425252
  0.442133 -0.087993  0.529661
  0.808949  0.602184  0.223425
  0.312929  0.606957  0.720360
  0.063742  0.108030  0.971533
  0.559056  0.103366  0.472030
EA77
 1.0000000000000000
     5.140116    0.000000    0.000000
    -0.106229    5.139019    0.000000
     0.000000   -0.063882    3.089746
 H   O  
   8   4
Direct
  0.829227  0.352770  0.144129
  1.093723  0.242374  0.268226
  0.584279  0.858092  0.393471
  0.848725  0.747624  0.517934
  0.075132  0.844875 -0.105158
  0.342323  0.740796  0.017645
  0.334322  0.358041  0.643904
  0.598745  0.247473  0.768230
  0.971290  0.375998  0.348870
  0.725015  0.879563  0.601096
  0.219205  0.874691  0.093636
  0.475910  0.380647  0.849663
EA78
 1.0000000000000000
     4.711480    0.000000    0.000000
     1.553561    4.447976    0.000000
     0.451309   -1.642041    3.893902
 H   O  
   8   4
Direct
  0.112413  0.369244  0.636409
  0.137816  0.024034  0.592319
  0.615048  0.364438  0.129229
  0.646785  0.017945  0.087200
  0.864398  0.867580  0.384956
  0.889801  0.522396  0.340932
  0.363346  0.868167  0.885142
  0.388636  0.523029  0.841266
  0.206776  0.143405  0.474762
  0.714752  0.137978 -0.030175
  0.958023  0.641886  0.222970
  0.458696  0.642099  0.724145
EA79
 1.0000000000000000
     4.459276   -0.000000   -0.000000
    -1.231809    4.285766    0.000000
     0.000000   -1.281678    4.271117
 H   O  
   8   4
Direct
  0.833244  0.550278  0.819893
  0.963126  0.919763  0.857331
  0.333321  0.049716  0.820628
  0.462734  0.419207  0.858189
  0.327902  0.551163  0.328006
  0.463227  0.918520  0.358138
  0.833366  0.051189  0.320530
  0.964040  0.420614  0.358150
  0.897626  0.762533  0.975954
  0.397435  0.261907  0.976730
  0.398171  0.765077  0.480751
  0.897755  0.263377  0.476656
EA80
 1.0000000000000000
     4.115745    0.000000    0.000000
     0.000000    4.734080    0.000000
     0.000000    0.000000    4.188471
 H   O  
   8   4
Direct
  0.985966  0.925712  0.558943
  0.613938  0.911608  0.570431
  0.134923  0.368923  0.568712
  0.453864  0.225290  0.463378
  0.269774  0.880760 -0.134840
  0.399660  0.749015  0.173750
  0.829528  0.143219 -0.004984
  0.851960  0.461952 -0.066157
  0.796900  0.890877  0.425763
  0.287922  0.221942  0.628222
  0.230906  0.726922  0.013373
  0.836885  0.323961  0.105138
EA81
 1.0000000000000000
     4.700782    0.000000    0.000000
    -0.238330    5.232141    0.000000
     0.000000   -0.151293    3.317935
 H   O  
   8   4
Direct
  0.331522  0.607550  0.681307
  0.422697  0.659280  1.127877
  0.770006  0.175640  0.852534
  0.691810  0.081068  0.420433
  0.264906  0.170294  0.352556
  0.186840  0.075917 -0.079616
  0.830179  0.445645  0.181706
  0.927402  0.492512  0.626418
  0.445816  0.725255  0.859246
  0.842068  0.079800  0.620494
  0.337401  0.075277  0.119950
  0.951172  0.558540  0.357985
EA82
 1.0000000000000000
     4.632163    0.000000    0.000000
    -1.868942    4.238395    0.000000
     0.000000   -2.042576    4.157501
 H   O  
   8   4
Direct
  0.706952  0.332327  0.273663
  0.886346  0.700189  0.289644
  0.223257  0.244205  0.962680
  0.286179  0.198473  0.622101
  0.722946  0.743337  0.963327
  0.786166  0.698167  0.622993
  0.464121 -0.164094  0.527961
  0.636186  0.203607  0.541547
  0.878329  0.467637  0.194624
  0.386878  0.244737  0.830584
  0.886695  0.744167  0.831414
  0.628901 -0.028579  0.443525
EA83
 1.0000000000000000
     4.344841    0.000000    0.000000
    -0.113845    4.343349    0.000000
     0.153400   -0.372654    4.326111
 H   O  
   8   4
Direct
  0.070871  0.185036  0.711942
  0.218962  0.435504  0.517195
  0.572290  0.187918  0.217350
  0.721411  0.434271  0.018499
  0.746504  0.813967  0.007788
  1.002694  0.989841  0.189373
  0.251129  0.818986  0.508378
  0.507504  0.994889  0.689756
  0.028276  0.319607  0.551101
  0.530700  0.318737  0.053116
  0.923131  0.783121  0.131159
  0.428434  0.788073  0.630759
EA84
 1.0000000000000000
     5.058692    0.000000    0.000000
     0.000000    5.058692    0.000000
     0.000000    0.000000    3.189345
 H   O  
   8   4
Direct
  0.288091  0.686804  0.913185
  0.145309  0.949913  0.810945
  0.539808  0.912298  0.455733
  0.689193  0.768673  0.104209
  0.955175  0.182701 -0.076287
  0.724819  0.266667  0.214290
  0.242424  0.270952  0.695821
  0.492865  0.360299  0.921642
  0.185580  0.775936  0.697967
  0.582396  0.736768  0.352251
  0.888975  0.166770  0.209918
  0.431440  0.237939  0.707233
EA85
 1.0000000000000000
     4.804571   -0.000000   -0.000000
     0.000000    4.804571   -0.000000
     0.000000    0.000000    3.535330
 H   O  
   8   4
Direct
  0.346807  0.109530  0.585481
  0.277361 -0.040569  0.954120
 -0.109530  0.653193  0.664519
  0.040569  0.722639  0.295880
 -0.134633  0.270893 -0.099498
  0.108913  0.450083  0.033018
  0.729107  0.134633  0.349498
  0.549917 -0.108913  0.216982
  0.364932 -0.068961  0.710399
  0.068961  0.635068  0.539601
  0.025719  0.268124  0.066480
  0.731876 -0.025719  0.183520
EA86
 1.0000000000000000
     4.337569   -0.000000   -0.000000
     0.000000    4.337569   -0.000000
     0.000000    0.000000    4.337569
 H   O  
   8   4
Direct
 -0.094861 -0.038735 -0.150199
  0.009227  0.025052  0.179850
  0.405139  0.538735  0.349801
  0.509227  0.474948  0.679850
  0.045313  0.445096  0.417305
 -0.004821  0.627786  0.120748
  0.545313  0.054904  0.917305
  0.495179 -0.127786  0.620748
  0.085634  0.013682 -0.029651
  0.585634  0.486318  0.470349
 -0.040493  0.427118  0.211947
  0.459507  0.072882  0.711947
EA87
 1.0000000000000000
     4.134462   -0.000000   -0.000000
     0.000000    4.134462   -0.000000
     0.000000    0.000000    4.774206
 H   O  
   8   4
Direct
  0.189658  0.020298  0.748219
 -0.170547  0.020250  0.678116
  0.020298  0.189658  0.248219
  0.020250 -0.170547  0.178116
  0.133564  0.516676  0.382949
 -0.052534  0.453303  0.653568
  0.516676  0.133564 -0.117051
  0.453303 -0.052534  0.153568
 -0.019111 -0.040548  0.823665
 -0.040548 -0.019111  0.323665
 -0.081029  0.530021  0.463484
  0.530021 -0.081029 -0.036516
EA88
 1.0000000000000000
     3.953695    0.000000    0.000000
     0.000000    3.953695    0.000000
     0.000000    0.000000    5.220749
 H   O  
   8   4
Direct
  0.045374  0.639368  0.147532
  0.046950  0.336263  0.328612
  0.545374  0.139368  0.647532
  0.546950 -0.163737  0.828612
  1.045374  0.639368  0.647532
  1.046950  0.336263  0.828612
  0.545374  0.139368  0.147532
  0.546950 -0.163737  0.328612
 -0.092323  0.524370  0.273855
  0.407677  0.024370  0.773855
  0.907677  0.524370  0.773855
  0.407677  0.024370  0.273855
EA89
 1.0000000000000000
     4.868756    0.000000    0.000000
    -2.434378    4.216467   -0.000000
     0.000000   -2.810978    3.975323
 H   O  
   8   4
Direct
  0.061698  0.384909  0.742638
  0.409049  0.682632  0.770792
 -0.188302 -0.115091 -0.007362
  0.159049  0.182632  0.020792
  0.561698  0.384909  0.242638
  0.909049  0.682632  0.270792
  0.311698 -0.115091  0.492638
  0.659049  0.182632  0.520792
  0.279254  0.432459  0.736571
  0.029254 -0.067541 -0.013429
  0.779254  0.432459  0.236571
  0.529254 -0.067541  0.486571
EA90
 1.0000000000000000
     4.172358    0.000000    0.000000
     0.000000    3.335204    0.000000
     0.000000    0.000000    5.864556
 H   O  
   8   4
Direct
  0.308771  0.777447  0.533041
  0.251573  0.915034  0.777918
  0.308771  0.501481  0.033041
  0.251573  0.639068  0.277918
  0.808771  0.001481  0.244387
  0.751573  0.139068  0.489265
  0.808771  0.277447  0.744387
  0.751573  0.415034  0.989265
  0.189656  0.971468  0.622021
  0.189656  0.695502  0.122021
  0.689656  0.195502  0.333368
  0.689656  0.471468  0.833368
EA91
 1.0000000000000000
     4.869000   -0.000000   -0.000000
    -2.434500    4.216678   -0.000000
     0.000000   -2.811118    3.975522
 H   O  
   8   4
Direct
  0.068264  0.394125  0.479799
  0.077086  0.085276  0.167254
  0.346434  0.910077  0.249089
  0.345899  0.594543 -0.066789
  0.871514  0.903732  0.778260
  0.871258  0.588484  0.462454
  0.551693  0.410831  0.951948
  0.551302  0.095322  0.636183
  0.163513  0.245948  0.411090
  0.431351  0.751193  0.177020
  0.957510  0.745903  0.706187
  0.634688  0.250047  0.879932
EA92
 1.0000000000000000
     4.869000   -0.000000   -0.000000
    -2.434500    4.216678   -0.000000
     0.000000   -2.811118    3.975522
 H   O  
   8   4
Direct
  0.064202  0.395436  0.477521
  0.072478  0.086543  0.164458
  0.326974  0.907846  0.226983
  0.326816  0.592332 -0.088542
  0.872306  0.903688  0.778988
  0.872060  0.588444  0.463186
  0.624973  0.408232  1.027635
  0.624601  0.092720  0.711891
  0.159179  0.246958  0.408276
  0.412044  0.749129  0.155284
  0.958271  0.745828  0.706920
  0.707987  0.247468  0.955641
EA93
 1.0000000000000000
     4.869000   -0.000000   -0.000000
    -2.434500    4.216678   -0.000000
     0.000000   -2.811118    3.975522
 H   O  
   8   4
Direct
  0.086206  0.394218  0.495789
  0.095207  0.085258  0.183539
  0.351229  0.910431  0.254322
  0.350395  0.594883 -0.061841
  0.795193  0.903719  0.701935
  0.794959  0.588464  0.386157
  0.553778  0.410722  0.954080
  0.553394  0.095212  0.638323
  0.181544  0.246145  0.427384
  0.436005  0.751392  0.181955
  0.881176  0.745878  0.629891
  0.636794  0.249958  0.882072
EA94
 1.0000000000000000
     4.869000   -0.000000   -0.000000
    -2.434500    4.216678   -0.000000
     0.000000   -2.811118    3.975522
 H   O  
   8   4
Direct
  0.067755  0.397419  0.482655
  0.075326  0.088392  0.169003
  0.300005  0.904629  0.196274
  0.300219  0.589140 -0.118902
  0.829491  0.903617  0.736113
  0.829277  0.588367  0.420349
  0.580002  0.409778  0.981155
  0.579731  0.094269  0.665509
  0.162380  0.248553  0.412798
  0.385300  0.746153  0.124940
  0.915475  0.745778  0.664084
  0.663078  0.249079  0.909264
EA95
 1.0000000000000000
     4.869000   -0.000000   -0.000000
    -2.434500    4.216678   -0.000000
     0.000000   -2.811118    3.975522
 H   O  
   8   4
Direct
  0.082662  0.392254  0.490680
  0.092368  0.083433  0.179025
  0.378196  0.913494  0.284897
  0.376990  0.597925 -0.031612
  0.838011  0.903795  0.744813
  0.837745  0.588547  0.428996
  0.598749  0.409169  1.000552
  0.598264  0.093656  0.684697
  0.178351  0.244571  0.422888
  0.462747  0.754216  0.212166
  0.923975  0.745934  0.672729
  0.681703  0.248339  0.928442
EA96
 1.0000000000000000
     4.869000   -0.000000   -0.000000
    -2.434500    4.216678   -0.000000
     0.000000   -2.811118    3.975522
 H   O  
   8   4
Direct
  0.115823  0.396143  0.524423
  0.125138  0.087401  0.212281
  0.330144  0.907581  0.229953
  0.329246  0.592037 -0.086276
  0.841323  0.903737  0.748087
  0.841068  0.588489  0.432281
  0.589236  0.409467  0.990700
  0.588914  0.093957  0.675004
  0.211319  0.248239  0.456131
  0.414899  0.748519  0.157516
  0.927323  0.745912  0.676014
  0.672279  0.248733  0.918757
EA97
 1.0000000000000000
     4.869000   -0.000000   -0.000000
    -2.434500    4.216678   -0.000000
     0.000000   -2.811118    3.975522
 H   O  
   8   4
Direct
  0.034586  0.393611  0.448984
  0.042549  0.084501  0.135814
  0.348048  0.910735  0.251395
  0.347954  0.595219 -0.064063
  0.826181  0.903677  0.732838
  0.825957  0.588427  0.417064
  0.589516  0.409487  0.991014
  0.589082  0.093975  0.675208
  0.129406  0.244964  0.379627
  0.433139  0.752042  0.179766
  0.912130  0.745802  0.660799
  0.672503  0.248693  0.918955
EA98
 1.0000000000000000
     4.345000    0.000000    0.000000
    -0.113815    4.343509    0.000000
     0.153381   -0.372687    4.326269
 H   O  
   8   4
Direct
 -0.053296  0.197168  0.665365
  0.275585  0.269982  0.540426
  0.553891  0.188057  0.249251
  0.684091  0.319078 -0.049699
  0.991527  0.886515 -0.124509
  0.945659  0.939902  0.230424
  0.408272  0.818048  0.350570
  0.454753  1.005601  0.665028
  0.073526  0.358971  0.578757
  0.511971  0.334843  0.099447
  1.083978  0.848044  0.069468
  0.540561  0.838321  0.528281
EA99
 1.0000000000000000
     4.345000    0.000000    0.000000
    -0.113815    4.343509    0.000000
     0.153381   -0.372687    4.326269
 H   O  
   8   4
Direct
  0.222043  0.242625  0.678294
  0.058686  0.326435  0.387616
  0.604770  0.176553  0.186680
  0.724553  0.359604 -0.084642
  0.828325  0.867687 -0.005845
  1.115842  1.026196  0.143466
  0.404249  0.890232  0.475850
  0.623912  0.984954  0.741709
  0.022612  0.296883  0.605196
  0.550540  0.339989  0.059709
  1.039554  0.830083  0.047212
  0.595260  0.834162  0.565894
EA100
 1.0000000000000000
     4.679725   -0.000000   -0.000000
    -2.001749    4.229992    0.000000
     0.000000   -2.214864    4.123095
 H   O  
   8   4
Direct
  0.041548 -0.023348  0.476891
  0.035760  0.303888  0.749605
  0.542497 -0.024532 -0.025943
  0.535739  0.298591  0.252268
  1.081152  0.721085  0.906525
  0.737702  0.401114  0.780689
  0.576389  0.715769  0.405955
  0.232891  0.396016  0.280336
  0.180703  0.230860  0.623886
  0.681436  0.228269  0.125653
  0.874872  0.613384  0.760756
  0.369709  0.608780  0.261106
EA101
 1.0000000000000000
     4.373782    0.000000    0.000000
     0.000000    4.809200    0.000000
     0.000000    0.000000    3.879733
 H   O  
   8   4
Direct
  0.005850  0.177248  0.224904
 -0.045087  0.486400  0.138661
  0.606684  0.500937  0.799171
  0.383498  0.288202  0.638906
  0.892514  0.964101  0.686479
  0.829929  0.766277  0.993444
  0.296108  0.968636  0.401625
  0.560629  0.757628  0.408261
  0.108005  0.339554  0.128294
  0.592273  0.308349  0.720741
  0.934367  0.777281  0.773018
  0.370783  0.801359  0.289358
EA102
 1.0000000000000000
     4.839066   -0.000000   -0.000000
    -0.759975    4.779017    0.000000
     0.000000   -0.568477    3.529311
 H   O  
   8   4
Direct
  0.720642  0.568150  0.133244
  0.806276  0.704770  0.542458
  0.216067  0.563409  0.632861
  0.301511  0.699853  1.042136
  0.981175  0.335215  0.969842
  0.875426  0.017083  0.895057
  0.332206  0.020780  0.250107
  0.593789  0.226792  0.417014
  0.835370  0.549169  0.347418
  0.329973  0.543809  0.847550
  0.955429  0.168805  1.094807
  0.401906  0.155698  0.473858
EA103
 1.0000000000000000
     4.337017    0.000000    0.000000
     0.048847    4.336742    0.000000
     0.056994   -0.049523    4.339033
 H   O  
   8   4
Direct
  0.032524  0.674848  0.564817
  0.374310  0.620718  0.473485
  0.018172  0.023754  0.901046
  0.309117  0.160369  1.046058
  0.517382  0.023809  0.401551
  0.809751  0.159162  0.544762
  0.532640  0.676316  0.066602
  0.873621  0.622543 -0.028236
  0.182051  0.513751  0.510826
  0.218211  0.108465  0.849061
  0.717448  0.107883  0.348292
  0.681399  0.515571  0.009363
EA104
 1.0000000000000000
     4.244144    0.000000    0.000000
     0.000000    3.513532    0.000000
     0.000000    0.000000    5.472451
 H   O  
   8   4
Direct
  0.391187  0.920623  0.648246
  0.046144  0.963283  0.731032
  0.389483  0.929924  0.137725
  0.049348  0.963789  0.233529
  0.899593  0.456545  0.884173
  0.563428  0.480482  0.989451
  0.883073  0.409309  0.392673
  0.538188  0.452946  0.475870
  0.181987  0.811463  0.628233
  0.185254  0.804958  0.134762
  0.694174  0.334167  0.878887
  0.677661  0.287213  0.385585
EA105
 1.0000000000000000
     5.055044    0.000000    0.000000
    -0.072979    5.054518   -0.000000
     0.000000   -0.046121    3.193963
 H   O  
   8   4
Direct
  0.622297  0.143743  0.375352
  0.767389  0.143786 -0.044826
  0.146216  0.127798  0.874970
  0.265340  0.138722  0.438947
  0.372066  0.639045  0.637335
  0.521145  0.642724  0.217094
  0.878725  0.653212  1.143148
  1.013967  0.635983  0.713777
  0.631401  0.235874  0.111073
  0.147386  0.232852  0.625922
  0.395723  0.742254  0.384471
  0.900822  0.748809  0.883332
EA106
 1.0000000000000000
     4.438655    0.000000    0.000000
     0.116373    4.437129    0.000000
     0.140996   -0.136791    4.145000
 H   O  
   8   4
Direct
  1.089602  0.146207  0.246672
  0.762298  0.258143  0.198876
  0.589735  0.142862  0.745431
  0.262868  0.257340  0.700298
  1.088601  0.861524  0.694737
  0.888111  0.636344  0.867540
  0.577781  0.865320  0.198264
  0.397350  0.619055  0.364801
  0.969062  0.283524  0.122348
  0.469583  0.282558  0.623565
  0.978795  0.677744  0.657432
  0.475797  0.677256  0.155286
EA107
 1.0000000000000000
     4.355774   -0.000000    0.000000
    -0.343399    4.342217   -0.000000
     0.137493   -0.568839    4.316281
 H   O  
   8   4
Direct
  0.407750  0.367375  0.835356
  0.352227  0.622925  1.106499
  0.908245  0.366946  0.336497
  0.852594  0.624255  0.605988
  0.466979  1.035861  0.413812
  0.436897  1.011231  0.764068
  0.969218  1.032847 -0.085852
  0.936296  1.010262  0.264595
  0.469506  0.443188  1.045818
  0.969562  0.444021  0.546748
  0.368684  0.909972  0.562917
  0.868272  0.908841  0.063451
EA108
 1.0000000000000000
     4.985571    0.000000   -0.000000
     0.014907    4.985549    0.000000
     0.011449   -0.009853    3.283726
 H   O  
   8   4
Direct
  0.217683  0.744182  0.403231
  0.008529  0.889888  0.134688
  0.277962  0.342721  0.248533
  0.327368  0.360594  0.711738
  0.776813  0.342551  0.748396
  0.827379  0.363338  1.211105
  0.688561  0.737170  0.712744
  0.599927  0.988952  0.950509
  0.065641  0.867909  0.415033
  0.410855  0.305439  0.457091
  0.910767  0.307980  0.956463
  0.574075  0.795821  0.936002
EA109
 1.0000000000000000
     4.822431   -0.000000   -0.000000
    -2.335393    4.219215    0.000000
     0.006184   -2.676458    4.011530
 H   O  
   8   4
Direct
  0.335800  0.338997  0.685794
  0.218919  0.495728  0.534746
  0.836615  0.339211  0.184978
  0.717198  0.494345  0.034143
  0.459852  1.023582  0.289742
  0.110498  0.944892  0.203624
  0.959658  1.024956  0.787065
  0.609954  0.946767  0.704379
  0.197196  0.436633  0.702698
  0.697185  0.436069  0.202556
  0.224949  0.819613  0.182834
  0.724462  0.821477  0.683358
EA110
 1.0000000000000000
     4.796707    0.000000    0.000000
    -2.277842    4.221355    0.000000
     0.009798   -2.599809    4.031042
 H   O  
   8   4
Direct
 -0.059045  0.591250  0.464226
  0.236184  0.688333  0.701309
  0.440564  0.590006 -0.034205
  0.737024  0.687707  0.201884
  0.366359  0.164754  0.108887
  0.190394  0.300560  0.360384
  0.861819  0.159933  0.609088
  0.685656  0.295600  0.860333
  0.175202  0.779051  0.584426
  0.675122  0.777669  0.084764
  0.202275  0.082292  0.216611
  0.696817  0.077054  0.715889
EA111
 1.0000000000000000
     4.427356   -0.000000   -0.000000
    -0.990954    4.315031    0.000000
     0.093620   -1.155131    4.272983
 H   O  
   8   4
Direct
  0.715623  0.503089  0.437063
  1.020314  0.622665  0.638913
  0.217290  0.501404 -0.064404
  0.520012  0.620953  0.140445
  0.129088 -0.030616  0.274188
  0.402727  0.247280  0.422016
  0.619931 -0.033960  0.769853
  0.897388  0.238010  0.919016
  0.875299  0.428778  0.525926
  0.375159  0.427060  0.027258
  0.348709  0.051796  0.253996
  0.841846  0.039493  0.754953
EA112
 1.0000000000000000
     4.755013    0.000000    0.000000
    -2.179786    4.225954   -0.000000
     0.015994   -2.471831    4.062012
 H   O  
   8   4
Direct
  0.171226  0.526077  1.059465
 -0.039974  0.112694  0.941392
  0.675765  0.531045  0.559380
  0.464743  0.117640  0.441463
  0.377139  0.605350  0.375458
  0.096373  0.565112  0.547387
  0.881737  0.609062  0.878988
  0.597454  0.558583  1.046063
  0.120391  0.282628  0.885027
  0.625872  0.287733  0.385614
  0.187205  0.425371  0.401044
  0.692188  0.424070  0.900072
EA113
 1.0000000000000000
     4.857222    0.000000    0.000000
    -2.392759    4.226975    0.000000
     0.000000   -2.729856    3.975449
 H   O  
   8   4
Direct
  0.307788  0.243608  0.828187
  0.518975  0.123811  0.628341
  0.565224  0.756190  0.577782
  0.774562  0.629624  0.380125
  0.060437  0.751084  0.077933
  0.269696  0.624611 -0.119882
  0.814676  0.255959  0.327467
  1.024141  0.129576  0.129881
  0.529503  0.346357  0.806772
  0.788798  0.853760  0.561068
  0.283713  0.848861  0.060351
  1.038808  0.353157  0.312330
EA114
 1.0000000000000000
     4.764943    0.000000    0.000000
    -0.464522    4.742247    0.000000
     0.000000   -0.355540    3.612205
 H   O  
   8   4
Direct
  0.796498  0.722167  0.746234
  0.498481  0.782174  0.871346
  0.301249  0.726970  0.245919
  0.003290  0.787113  0.371321
  0.991822  0.236321  0.671402
  1.032737  0.075819  1.009891
  0.625865  0.190217  0.371588
  0.314327  0.243349  0.321904
  0.632751  0.641796  0.872406
  0.137927  0.647072  0.373319
  0.887298  0.136534  0.856805
  0.444707  0.180835  0.495588
EA115
 1.0000000000000000
     4.718901   -0.000000   -0.000000
    -2.101335    4.225212    0.000000
     0.000000   -2.346863    4.093929
 H   O  
   8   4
Direct
  0.370986  0.571777  0.672534
  0.266943  0.861541  0.814667
  0.870363  0.569615  0.170822
  0.768002  0.860681  0.316693
  0.576650  0.236107  0.724562
  0.229281 -0.061187  0.512281
  1.071867  0.230696  0.224243
  0.724471 -0.066334  0.012043
  0.212758  0.623834  0.785634
  0.713535  0.622369  0.286274
  0.441656  0.103649  0.504670
  0.936511  0.099189  0.004655
EA116
 1.0000000000000000
     2.880294   -0.000000   -0.000000
     0.000000    2.880294   -0.000000
     0.000000    0.000000    9.837067
 H   O  
   8   4
Direct
  0.726055  0.359995  0.399735
  0.351659  0.730102  0.381945
  0.140005  0.226055  0.899735
 -0.230102 -0.148341  0.881945
  0.273945  0.640005  0.600265
  0.648341  0.269898  0.618055
 -0.226055  0.140005  0.138535
  0.148341 -0.230102  0.120745
  0.422286  0.409903  0.360120
  0.090097 -0.077714  0.860120
  0.577714  0.590097  0.639880
  0.077714  0.090097  0.098920
EA117
 1.0000000000000000
     4.868772   -0.000000   -0.000000
     0.000000    4.868772   -0.000000
     0.000000    0.000000    3.442709
 H   O  
   8   4
Direct
  0.100929  0.158279  0.376394
 -0.145337  0.317638  0.532890
  0.841721  0.100929  0.123606
  0.682362 -0.145337 -0.032890
 -0.100929  0.841721  0.376394
  0.145337  0.682362  0.532890
  0.158279 -0.100929  0.123606
  0.317638  0.145337 -0.032890
  0.044408  0.274084  0.590716
  0.725916  0.044408 -0.090716
 -0.044408  0.725916  0.590716
  0.274084 -0.044408 -0.090716
EA118
 1.0000000000000000
     5.818854   -0.000000   -0.000000
     0.000000    5.818854   -0.000000
     0.000000    0.000000    2.410262
 H   O  
   8   4
Direct
 -0.028906  0.195842  0.217464
  0.079961  0.344984 -0.232356
  0.028906  0.804158 -0.217464
 -0.079961  0.655016  0.232356
  0.190611 -0.034129  0.198229
  0.357368  0.090815 -0.186477
  0.809389  0.034129 -0.198229
  0.642632 -0.090815  0.186477
 -0.051055  0.337874  0.014892
  0.051055  0.662126 -0.014892
  0.330721 -0.056686 -0.011752
  0.669279  0.056686  0.011752
EA119
 1.0000000000000000
     4.822864    0.000000    0.000000
     0.000000    3.404097    0.000000
     0.000000    0.000000    4.970868
 H   O  
   8   4
Direct
  0.003483  0.357452  0.102798
  0.172796  0.262072  0.353875
  0.003483  0.843681  0.642872
  0.172796  0.748302  0.893950
  0.503483  0.857452  0.142872
  0.672796  0.762072  0.393950
  0.503483  0.343681  0.602798
  0.672796  0.248302  0.853875
  0.035935  0.151132  0.233215
  0.035935  0.637361  0.773290
  0.535935  0.651132  0.273290
  0.535935  0.137361  0.733215
EA120
 1.0000000000000000
     4.727217    0.000000    0.000000
     0.000000    3.828166    0.000000
     0.000000    0.000000    4.509650
 H   O  
   8   4
Direct
  0.986532  0.698289  0.295295
  1.087642  0.343455  0.183035
 -0.013468  0.698289  0.795295
  0.087642  0.343455  0.683035
  0.486532  0.198289  0.045295
  0.587642 -0.156545 -0.066965
  0.486532  0.198289  0.545295
  0.587642 -0.156545  0.433035
  0.925826  0.458257  0.271670
 -0.074174  0.458257  0.771670
  0.425826 -0.041743  0.021670
  0.425826 -0.041743  0.521670
EA121
 1.0000000000000000
     4.462513    0.000000    0.000000
     0.000000    4.462513    0.000000
     0.000000    0.000000    4.098077
 H   O  
   8   4
Direct
 -0.079700  0.558787 -0.142853
  0.122556  0.516669  0.154001
  0.420300  0.058787  0.824070
  0.622556  0.016669  1.120924
 -0.079700  0.058787  0.340609
  0.122556  0.016669  0.637462
  0.420300  0.558787  0.340609
  0.622556  0.516669  0.637462
 -0.042856  0.424545  0.038468
  0.457144 -0.075455  1.005391
 -0.042856 -0.075455  0.521929
  0.457144  0.424545  0.521929
EA122
 1.0000000000000000
     4.374000   -0.000000   -0.000000
     0.000000    4.809000   -0.000000
     0.000000    0.000000    3.880000
 H   O  
   8   4
Direct
  0.059203  0.135408  0.238774
 -0.123152  0.411497  0.256698
  0.536590  0.500436  1.091914
  0.358847  0.383992  0.781982
  0.990220  1.020575  0.740455
  0.828565  0.874087  1.043991
  0.412372  1.013950  0.453003
  0.695049  0.844622  0.567946
  0.016075  0.293284  0.388214
  0.555677  0.375687  0.896073
  1.009307  0.865428  0.899575
  0.522999  0.841123  0.409670
EA123
 1.0000000000000000
     4.374000   -0.000000   -0.000000
     0.000000    4.809000   -0.000000
     0.000000    0.000000    3.880000
 H   O  
   8   4
Direct
 -0.016859  0.221133  0.259206
 -0.076852  0.506992  0.431176
  0.526269  0.482242  1.002382
  0.409383  0.282981  0.721882
  1.039316  0.995378  0.754392
  0.877152  0.820490  1.033504
  0.362959  0.962846  0.362876
  0.654008  0.837306  0.527018
  0.078492  0.362850  0.402658
  0.545965  0.292807  0.918103
  1.049235  0.818836  0.875866
  0.498668  0.801838  0.353553
EA124
 1.0000000000000000
     4.463000   -0.000000   -0.000000
     0.000000    4.463000   -0.000000
     0.000000    0.000000    4.098000
 H   O  
   8   4
Direct
 -0.084872  0.539849 -0.129087
  0.076083  0.397568  0.166368
  0.413369  0.048352  0.861628
  0.580148 -0.083789  1.158888
 -0.084662 -0.092085  0.355496
  0.083523  0.005265  0.667312
  0.398098  0.550981  0.382268
  0.606603  0.406887  0.638802
 -0.102591  0.380731  0.031801
  0.408317 -0.116082  1.017267
 -0.080013 -0.120385  0.590731
  0.410410  0.386976  0.537910
EA125
 1.0000000000000000
     4.463000   -0.000000   -0.000000
     0.000000    4.463000   -0.000000
     0.000000    0.000000    4.098000
 H   O  
   8   4
Direct
 -0.067187  0.566548 -0.119124
  0.082957  0.413530  0.176717
  0.449623  0.057190  0.886752
  0.583112 -0.108315  1.184142
 -0.038473  0.141885  0.499777
  0.067286 -0.174496  0.599931
  0.464329  0.556738  0.373522
  0.546829  0.399534  0.696965
 -0.077182  0.389070  0.018024
  0.418205 -0.114274  1.029169
 -0.088526 -0.069392  0.479875
  0.415759  0.384030  0.508173
EA126
 1.0000000000000000
     4.857000    0.000000   -0.000000
    -2.392660    4.226775    0.000000
     0.000000   -2.729601    3.975043
 H   O  
   8   4
Direct
  0.286748  0.233708  0.796666
  0.580776  0.190217  0.773239
  0.518110  0.703718  0.517580
  0.807826  0.654086  0.488223
  0.083168  0.793588  0.078246
  0.389689  0.774319  0.070137
  0.835753  0.216099  0.275359
  1.184772  0.292617  0.313156
  0.528807  0.380286  0.877675
  0.757785  0.843006  0.614494
  0.320954  0.944423  0.113699
  1.071887  0.422073  0.380950
EA127
 1.0000000000000000
     4.857000    0.000000   -0.000000
    -2.392660    4.226775    0.000000
     0.000000   -2.729601    3.975043
 H   O  
   8   4
Direct
  0.323861  0.254626  0.826248
  0.638002  0.251611  0.795168
  0.583544  0.752888  0.553065
  0.922627  0.803622  0.574719
  0.027601  0.664681 -0.027828
  0.357742  0.694207 -0.010405
  0.771385  0.243784  0.287596
  1.044093  0.165780  0.249086
  0.562052  0.419995  0.871469
  0.820809  0.943873  0.620530
  0.263293  0.838579  0.102286
  1.012080  0.372283  0.355131
EA128
 1.0000000000000000
     4.860573    0.000000    0.000000
    -2.405460    4.223616    0.000000
     0.000000   -2.754417    3.975332
 H   O  
   8   4
Direct
  0.224375  0.500011  0.675490
  0.381852  0.272301  0.578014
  0.729022  0.506002  0.170776
  0.887490  0.279616  0.081322
 -0.140036  0.830240  0.740066
  0.236122  1.149780  0.913885
  0.361848  0.832395  0.234510
  0.738749  1.148976  0.408776
  0.405924  0.492192  0.597689
  0.916998  0.503804  0.105473
  0.075328  0.874601  0.801536
  0.575873  0.874567  0.296800
EA129
 1.0000000000000000
     4.576945    0.000000    0.000000
    -1.667033    4.262561    0.000000
     0.048993   -1.854579    4.184084
 H   O  
   8   4
Direct
  0.573337  0.081893  0.396297
  0.556939  0.367131  0.703805
  0.320227  0.578577  0.643604
  0.299112  0.857094  0.953616
  0.822330  0.581147  0.146537
  0.805971  0.866316  0.454133
  0.105115  0.237606 -0.122089
  0.394018  0.278002  0.087017
  0.622967  0.175316  0.627180
  0.361586  0.662870  0.874388
  0.873983  0.675995  0.377316
  0.168434  0.234031  0.078641
EA130
 1.0000000000000000
     4.941386    0.000000    0.000000
    -0.129959    4.939677    0.000000
     0.011031   -0.106611    3.344632
 H   O  
   8   4
Direct
  0.471356  0.584244  0.581673
  0.219594  0.714946  0.411798
  0.976262  0.589516  1.082366
  0.724465  0.720074  0.912200
  0.618273  0.181111  1.029328
  0.794713  0.367697  0.766813
  0.123884  0.186228  0.533395
  0.293844  0.375162  0.265695
  0.415733  0.729068  0.413593
  0.920693  0.733687  0.913071
  0.720104  0.183256  0.780877
  0.216051  0.191818  0.277069
EA131
 1.0000000000000000
     4.583681    0.000000    0.000000
    -1.604445    4.293703    0.000000
     0.046158   -1.742917    4.147741
 H   O  
   8   4
Direct
  0.752933  0.103545  0.809387
  0.997116 -0.016040  0.617924
  0.003140  0.603759  0.560180
  0.247311  0.484068  0.368790
  0.492464  0.592764  1.051621
  0.740485  0.474312  0.867757
  0.247679  0.098222  0.308792
  0.492021 -0.021185  0.117584
  0.845004 -0.067014  0.760875
  0.093643  0.431783  0.509920
  0.589786  0.427617  1.013134
  0.340616 -0.071565  0.261238
EA132
 1.0000000000000000
     4.372830   -0.000000   -0.000000
    -0.092248    4.788843   -0.000000
     0.000000   -0.075089    3.897358
 H   O  
   8   4
Direct
  0.851699  1.037603  0.782475
  0.916088  0.754324  0.949089
  0.339676  1.032621  0.456478
  0.349507  0.857784  0.119931
  0.691071  0.515879  0.547925
  0.556040  0.360212  0.233193
  0.179774  0.529702  1.068484
  0.066114  0.366984  0.747187
  1.017190  0.919104  0.857331
  0.425021  0.864736  0.353949
  0.517780  0.399943  0.474040
  0.021283  0.399486  0.988234
EA133
 1.0000000000000000
     4.368436   -0.000000   -0.000000
    -0.510327    4.338525    0.000000
     0.126038   -0.714585    4.307750
 H   O  
   8   4
Direct
  0.875003  0.399038  0.029486
  1.074112  0.688013  0.196896
  0.369739  0.394312  0.529258
  0.569029  0.683099  0.696654
  0.613014 -0.106103  0.279429
  0.818816  0.179377  0.443327
  0.125182 -0.101663  0.779840
  0.324370  0.187328  0.947120
  1.027247  0.569429 -0.007700
  0.522856  0.564050  0.492198
  0.772212  0.057407  0.240252
  0.275849  0.069933  0.742426
EA134
 1.0000000000000000
     4.376891    0.000000    0.000000
    -0.577128    4.338674   -0.000000
     0.120797   -0.771706    4.299050
 H   O  
   8   4
Direct
  0.738485  0.349076  0.149991
  0.502432  0.249344  0.391686
  0.240345  0.351268  0.646366
  0.003974  0.247621  0.886187
  0.877679  0.769742  0.748040
  0.781504  0.418526  0.624895
  0.410168  0.734583  0.258776
  0.394085  0.470556 -0.028123
  0.641589  0.166694  0.230526
  0.143243  0.167542  0.724248
  0.758550  0.625418  0.585525
  0.265345  0.581715  0.126522
EA135
 1.0000000000000000
     4.862765   -0.000000   -0.000000
    -2.413163    4.221744    0.000000
     0.000000   -2.769403    3.975446
 H   O  
   8   4
Direct
 -0.002575  0.187253  0.747728
  0.165893  0.027251  0.827960
  0.493911  0.185992  0.253540
  0.665929  0.028884  0.333141
  0.742890  0.684555 -0.003018
  0.915801  0.528406  0.076711
  0.232508  0.675460  0.498787
  0.424166  0.546871  0.598413
 -0.050618 -0.020594  0.766764
  0.447804 -0.022282  0.271171
  0.697385  0.475780  0.013401
  0.201683  0.486547  0.538639
EA136
 1.0000000000000000
     4.373412    0.000000    0.000000
    -0.565142    4.336743   -0.000000
     0.122304   -0.763119    4.304581
 H   O  
   8   4
Direct
  0.893095  0.805022  0.382025
  0.539805  0.740709  0.364510
  1.138437  0.300577  0.132798
  0.785204  0.236333  0.115026
  0.261564  0.831305  0.909803
  0.568828  0.723651  0.773750
  0.643385  0.305451  0.632505
  0.290090  0.241291  0.615001
  0.721597  0.641923  0.389468
  0.967078  0.136607  0.136904
  0.473060  0.816305  0.964753
  0.471982  0.141794  0.637794
EA137
 1.0000000000000000
     4.338442    0.000000    0.000000
    -0.004461    4.338440    0.000000
     0.088595   -0.156257    4.336739
 H   O  
   8   4
Direct
  0.136832  0.670062  0.285233
  0.317153  0.375933  0.341946
  0.638572  0.671301  0.784302
  0.812029  0.374156  0.846321
  0.616085  0.240009  0.126803
  0.807403 -0.047252  0.182922
  0.194902  0.235454  0.783206
  0.271288 -0.098206  0.669617
  0.111866  0.447199  0.291560
  0.610518  0.448780  0.786888
  0.667817  0.099038  0.287220
  0.129254  0.022407  0.801868
EA138
 1.0000000000000000
     4.857069    0.000000    0.000000
    -2.392911    4.226712    0.000000
     0.000000   -2.730087    3.975050
 H   O  
   8   4
Direct
  0.943084  0.084451  0.295809
  0.798075  0.218660  0.146031
  0.429673  0.068630  0.789040
  0.292840  0.211631  0.643169
  0.701821  0.725181  0.532977
  0.554524  0.428418  0.150072
  0.199095  0.723195  1.038848
  0.054860  0.430013  0.655532
  0.968555  0.169101  0.146879
  0.465842  0.167034  0.650131
  0.504864  0.476968  0.357613
  0.002199  0.476044  0.861684
EA139
 1.0000000000000000
     4.868398    0.000000    0.000000
    -2.432475    4.217151   -0.000000
     0.000000   -2.807146    3.975530
 H   O  
   8   4
Direct
  0.216410  0.652542  0.490780
  0.534730  0.855287  0.770475
  0.706892  0.658358  0.015700
  1.037460  0.856183  0.278112
  0.318185  0.251980  0.232628
  0.615417  0.218865  0.235176
 -0.174622  0.260782  0.728978
  0.120775  0.224827  0.737201
  0.356433  0.876816  0.720504
  0.865500  0.890242  0.236693
  0.559096  0.398268  0.277212
  0.067903  0.408421  0.785215
EA140
 1.0000000000000000
     4.732038   -0.000000    0.000000
    -1.229397    4.569547   -0.000000
     0.006781   -1.065080    3.775121
 H   O  
   8   4
Direct
  0.731407  0.232058  0.031039
  0.915165  0.021692  0.086593
  0.146548  0.226441  0.466577
  0.297266 -0.012006  0.263029
  0.476869  0.723322  0.273315
  0.655977  0.511475  0.335945
  1.106213  0.602567 -0.130563
  0.961417  0.685747  0.221850
  0.715726  0.024202  0.033909
  0.255884  0.087096  0.502151
  0.457135  0.517356  0.286607
  0.918264  0.609540 -0.034350
EA141
 1.0000000000000000
     4.864623    0.000000    0.000000
    -2.419609    4.220195    0.000000
     0.000000   -2.781973    3.975506
 H   O  
   8   4
Direct
  0.802021  0.438054  0.486852
  0.858226  0.823793  0.757384
  0.306718  0.443054 -0.013337
  0.363068  0.828852  0.257439
  0.556150 -0.057190  0.736352
  0.612339  0.328518  1.007121
  0.054059 -0.063333  0.239615
  0.102850  0.319310  0.504929
  0.695136  0.545999  0.630894
  0.200334  0.550959  0.131600
  0.450672  0.050654  0.882933
 -0.059106  0.041088  0.375484
EA142
 1.0000000000000000
     4.453586   -0.000000   -0.000000
    -1.333454    3.968156    0.000000
     0.000000   -1.647719    4.618223
 H   O  
   8   4
Direct
  0.133591 -0.112608  0.669850
  0.088297  0.120524  0.497435
  0.879298  0.376513  0.913551
  0.831053  0.614521  0.747483
  0.629071 -0.117674  0.169436
  0.583573  0.115482 -0.002821
  0.382656  0.387136  0.420358
  0.337434  0.620416  0.248055
  0.195803  0.133462  0.674717
  0.935022  0.624545  0.925294
  0.690310  0.128550  0.174815
  0.446641  0.632944  0.424293
EA143
 1.0000000000000000
     4.548492   -0.000000   -0.000000
    -1.564168    4.271084    0.000000
     0.055709   -1.740571    4.201915
 H   O  
   8   4
Direct
  0.835074  0.265908  0.209119
  0.585542  0.068787  0.367303
  0.330323  0.261310  0.709369
  0.080741  0.063975  0.867291
  0.577587  0.762608  0.462267
  0.328801  0.557796  0.614779
  1.084463  0.765034 -0.041296
  0.835020  0.567825  0.116896
  0.800035  0.109578  0.316310
  0.294850  0.103969  0.815499
  0.541945  0.598070  0.560011
  1.050209  0.610532  0.067836
EA144
 1.0000000000000000
     4.954966    0.000000    0.000000
    -0.084628    4.954244    0.000000
     0.011169   -0.075732    3.325672
 H   O  
   8   4
Direct
  0.934776  0.237990  0.876928
  0.746077 -0.010862  0.889191
  0.431640  0.225726  0.372027
  0.237433 -0.018536  0.385370
  0.407494  0.454134 -0.029901
  0.663498  0.573334  0.175510
 -0.094770  0.444988  0.478981
  0.163667  0.566751  0.674071
  0.782739  0.151647  0.739819
  0.273161  0.146667  0.242164
  0.477894  0.615759  0.105929
 -0.020702  0.610344  0.599346
EA145
 1.0000000000000000
     4.868999   -0.000000   -0.000000
    -2.434495    4.216679    0.000000
     0.000000   -2.811108    3.975522
 H   O  
   8   4
Direct
 -0.163729  0.456358  0.247281
  0.213379  0.671485  0.419644
  0.342276  0.455447  0.721755
  0.712358  0.667656  0.912971
  0.651486  0.258906  0.555253
  0.753376 -0.018149  0.474146
  0.156700  0.264120  0.055195
  0.258417 -0.013100 -0.025798
  0.016782  0.666523  0.461924
  0.509520  0.651125  0.945378
  0.819245  0.243274  0.640973
  0.323727  0.248029  0.141548
EA146
 1.0000000000000000
     4.817312    0.000000    0.000000
    -2.319485    4.222142    0.000000
     0.000000   -2.638371    4.012985
 H   O  
   8   4
Direct
  0.490102  0.753844  0.622315
  0.784451  0.774883  0.780379
 -0.015667  0.749818  0.122547
  0.283528  0.778812  0.281810
  0.891984  0.066507  0.357835
  0.750330  0.313547  0.445772
  0.397382  0.071999  0.858273
  0.255437  0.318795  0.946098
  0.565991  0.597406  0.615938
  0.065182  0.597690  0.116918
  0.832509  0.186696  0.277488
  0.336741  0.190976  0.777296
EA147
 1.0000000000000000
     5.259897   -0.000000    0.000000
     0.000000    3.036717   -0.000000
    -0.877013    0.000000    5.109255
 H   O  
   8   4
Direct
  0.925541  0.547832  0.849199
  0.690838  0.333867  0.682813
  0.574459 -0.047832  0.150801
  0.809162  0.166133  0.317187
  0.212705  0.085042  0.624338
  0.400384  0.035071  0.881535
  0.287295  0.414958  0.375662
  0.099616  0.464929  0.118465
  0.762321  0.618300  0.740188
  0.737679 -0.118300  0.259812
  0.265611 -0.120112  0.766327
  0.234389  0.620112  0.233673
EA148
 1.0000000000000000
     4.337569   -0.000000   -0.000000
     0.000000    4.337569   -0.000000
     0.000000    0.000000    4.337569
 H   O  
   8   4
Direct
  0.450469  0.348289  0.087115
  0.488503  0.611995 -0.142771
  0.049531  0.348289  0.587115
  0.011497  0.611995  0.357229
 -0.049531 -0.151711 -0.087115
 -0.011497  0.111995  0.142771
  0.549531 -0.151711  0.412885
  0.511497  0.111995  0.642771
  0.561028  0.539717  0.055656
 -0.061028  0.539717  0.555656
  0.061028  0.039717 -0.055656
  0.438972  0.039717  0.444344
EA149
 1.0000000000000000
     3.683378   -0.000000   -0.000000
     0.000000    3.683378   -0.000000
     0.000000    0.000000    6.015151
 H   O  
   8   4
Direct
  0.503562  0.382323  0.359513
  0.516466  0.688608  0.188765
  0.382323  0.503562  0.859513
  0.688608  0.516466  0.688765
  0.167853 -0.132186 -0.008586
 -0.200582  0.053603 -0.032041
  0.132186 -0.167853  0.491414
 -0.053603  0.200582  0.467959
  0.479972  0.429068  0.201723
  0.429068  0.479972  0.701723
  0.032729  0.078582  0.040627
 -0.078582 -0.032729  0.540627
EA150
 1.0000000000000000
     5.445654   -0.000000    0.000000
     0.000000    5.445654    0.000000
     0.000000    0.000000    2.751940
 H   O  
   8   4
Direct
  0.355059  0.770075  0.573902
  0.129399  0.792839  0.899816
  0.855059  0.775722  0.054604
  0.629399  0.798485  0.380518
  0.360706  0.270075  0.054604
  0.135046  0.292839  0.380518
  0.860706  0.275722  0.573902
  0.635046  0.298485  0.899816
  0.257072  0.678616  0.805229
  0.757072  0.684263  0.285931
  0.262719  0.178616  0.285931
  0.762719  0.184263  0.805229
EA151
 1.0000000000000000
     4.732824   -0.000000   -0.000000
     1.577608    4.462149    0.000000
     1.577608   -2.231075    3.864334
 H   O  
   8   4
Direct
  0.420196  0.013314 -0.137319
  0.432641  0.005511  0.178281
  0.470397  0.488214  0.337580
  0.482841  0.480410  0.653181
 -0.054703  0.538415  0.862681
 -0.042259  0.530611  1.178281
  0.945297  0.013314  0.387781
  0.957741  0.005511  0.703382
  0.571862 -0.018825 -0.040962
  0.622063  0.456075  0.433938
  0.096962  0.506275  0.959038
  1.096962 -0.018825  0.484138
EA152
 1.0000000000000000
     5.201835    0.000000    0.000000
     0.000000    5.201835    0.000000
     0.000000    0.000000    3.015962
 H   O  
   8   4
Direct
  0.184282  0.963048  0.041467
  0.384006  0.769528 -0.120003
  0.646341  0.283819  0.041467
  0.846065  0.090299 -0.120003
  0.075697  0.392405  0.541467
  0.275421  0.198885  0.379997
  0.754926  0.854463  0.541467
  0.954650  0.660943  0.379997
  0.238624  0.786267  0.078536
  0.700682  0.107038  0.078536
  0.130038  0.215623  0.578536
  0.809267  0.677681  0.578536
EA153
 1.0000000000000000
     4.463000   -0.000000   -0.000000
     0.000000    4.463000   -0.000000
     0.000000    0.000000    4.098000
 H   O  
   8   4
Direct
 -0.068369  0.554457 -0.118614
  0.079177  0.399045  0.177298
  0.419631  0.048333  0.886839
  0.571907 -0.098700  1.185035
  0.033900  0.051854  0.367838
 -0.052118 -0.099820  0.693349
  0.438429  0.550352  0.383804
  0.574017  0.387144  0.681464
 -0.088074  0.383036  0.026209
  0.424942 -0.135331  1.014436
 -0.096379 -0.100419  0.461000
  0.408496  0.379488  0.527390
EA154
 1.0000000000000000
     4.463000   -0.000000   -0.000000
     0.000000    4.463000   -0.000000
     0.000000    0.000000    4.098000
 H   O  
   8   4
Direct
 -0.082587  0.551375 -0.130826
  0.080487  0.411984  0.164884
  0.442792  0.054666  0.858991
  0.591217 -0.096402  1.157098
 -0.141319  0.036823  0.452328
  0.169791 -0.072794  0.566205
  0.422707  0.556273  0.363375
  0.584832  0.420427  0.661596
 -0.091826  0.385436  0.022557
  0.407111 -0.091904  1.030261
 -0.041387 -0.126457  0.565667
  0.414026  0.391071  0.517800
EA155
 1.0000000000000000
     5.202000   -0.000000   -0.000000
     0.000000    5.202000   -0.000000
     0.000000    0.000000    3.016000
 H   O  
   8   4
Direct
  0.233181  0.947684 -0.016060
  0.339359  0.672745 -0.031580
  0.670428  0.461814  0.211570
  0.735611  0.221355 -0.056107
  0.137573  0.399520  0.392561
  0.281788  0.157963  0.547582
  0.682380  0.903635  0.722812
  0.887555  0.804773  0.397966
  0.199943  0.774512  0.092352
  0.601292  0.295016  0.127900
  0.132089  0.263149  0.613834
  0.729943  0.754309  0.546860
EA156
 1.0000000000000000
     4.338000   -0.000000    0.000000
    -0.004467    4.337998   -0.000000
     0.088618   -0.156217    4.336282
 H   O  
   8   4
Direct
  0.129288  0.659556  0.279432
  0.133648  0.307598  0.287872
  0.735950  0.615238  0.710109
  0.595705  0.329312  0.853479
  0.432923  0.080873  0.185499
  0.726142 -0.120359  0.203009
  0.075975  0.095315  0.710101
  0.251471 -0.169356  0.850430
 -0.006660  0.481393  0.274490
  0.540130  0.532419  0.783929
  0.527489 -0.078266  0.304839
  0.047292 -0.113617  0.780846
EA157
 1.0000000000000000
     4.338000   -0.000000    0.000000
    -0.004467    4.337998   -0.000000
     0.088618   -0.156217    4.336282
 H   O  
   8   4
Direct
  0.148351  0.648836  0.279619
  0.128272  0.297470  0.289437
  0.564136  0.599719  0.847250
  0.724869  0.314325  0.703943
  0.628495  0.098763  0.089645
  0.556075 -0.167103  0.308470
  0.236624  0.113895  0.844450
  0.046193 -0.160991  0.725993
  0.000444  0.480481  0.274806
  0.520870  0.394935  0.758776
  0.483281  0.034302  0.248837
  0.024455  0.049569  0.809962
EA158
 1.0000000000000000
     4.338000   -0.000000   -0.000000
     0.000000    4.338000   -0.000000
     0.000000    0.000000    4.338000
 H   O  
   8   4
Direct
  0.453394  0.349241  0.070933
  0.308755  0.514213 -0.209995
  0.125028  0.371942  0.315294
  0.009243  0.690107  0.424205
 -0.192597 -0.096229  0.046252
  0.000664  0.203309  0.030362
  0.625247 -0.122809  0.465477
  0.480357  0.177045  0.592264
  0.484271  0.520812 -0.070209
 -0.036395  0.470771  0.435608
 -0.009807 -0.006879 -0.048277
  0.464893  0.029037  0.424250
EA159
 1.0000000000000000
     4.420273    0.000000    0.000000
     0.000000    4.420273    0.000000
     0.000000    0.000000    4.177745
 H   O  
   8   4
Direct
  0.547468  0.796503  0.031379
  0.756583  0.828763  0.325982
  0.397134  0.282894  0.654301
  0.710372  0.351254  0.506249
  0.015186  0.956519  0.557823
  0.120923  0.748564  0.834143
  0.012460  0.286806 -0.002185
  0.358229  0.298956  0.046614
  0.735253  0.889952  0.103244
  0.593430  0.192450  0.610116
  0.076698  0.749995  0.605610
  0.169935  0.391863  0.116627
EA160
 1.0000000000000000
     4.565030    0.000000   -0.000000
    -1.494964    4.313303    0.000000
     0.000000   -1.531489    4.144795
 H   O  
   8   4
Direct
  0.559322  0.541745  0.758256
  0.547671  0.256142  0.877613
  0.059667  0.540712  0.259659
  0.046144  0.254955  0.379430
  0.557940  1.041170  0.257413
  0.545655  0.756343  0.378116
  0.054475  1.043825  0.761536
  0.044676  0.755647  0.875939
  0.448303  0.417806  0.890312
 -0.052252  0.417301  0.391710
  0.446752  0.918215  0.390131
 -0.056306  0.916442  0.890828
EA161
 1.0000000000000000
     4.416262   -0.000000    0.000000
    -0.001659    4.416262   -0.000000
     0.031181   -0.054994    4.184744
 H   O  
   8   4
Direct
  0.868582  0.467709 -0.044580
  0.884420  0.298533  0.275439
  0.870224  0.968530  0.455824
  0.886175  0.797934  0.775079
  0.248992  0.410959  0.550226
  0.437409  0.196416  0.752219
  0.261763  0.899984  0.051427
  0.452906  0.680503  0.244996
  0.808348  0.482361  0.179043
  0.809901  0.982103  0.679519
  0.235938  0.284377  0.737954
  0.253071  0.774125  0.240767
EA162
 1.0000000000000000
     4.420965    0.000000    0.000000
     0.000000    4.420965    0.000000
     0.000000    0.000000    4.176436
 H   O  
   8   4
Direct
  0.345299  0.329101  0.114048
  0.168086  0.627299  0.161465
  0.850488  0.368497  0.517488
  0.859461  0.717336  0.522685
  0.284651 -0.090406  0.607009
  0.535753  0.147555  0.660800
  0.664063 -0.028768  0.307617
  0.931496  0.099029  0.110319
  0.292373  0.517713  0.007848
  0.935497  0.539307  0.633578
  0.323721  0.105584  0.705489
  0.722070  0.032333  0.092332
EA163
 1.0000000000000000
     4.860996    0.000000    0.000000
     0.000000    4.860996    0.000000
     0.000000    0.000000    3.454174
 H   O  
   8   4
Direct
  0.835371  0.478506  0.730166
  0.558755  0.358138  0.870400
  0.335984  0.480259  0.229124
  0.059684  0.358360  0.368197
  0.344310  0.819520  0.672976
  0.607149  0.995388  0.668052
  0.903879  0.820591  0.172158
  1.078804  1.081052  0.124774
  0.692270  0.502153  0.924064
  0.192464  0.502902  0.422691
  0.430593  0.977113  0.796984
  0.902880  1.017421  0.224625
EA164
 1.0000000000000000
     4.498938    0.000000    0.000000
    -1.104156    4.361339   -0.000000
     0.000000   -1.088527    4.159533
 H   O  
   8   4
Direct
  0.592332  0.776862  0.250965
  0.494785  0.424782  0.258250
  1.090935  0.757752  0.752280
  0.978463  0.399543  0.712834
  0.743763  0.036058  0.721058
  0.398282 -0.091456  0.619181
  0.244182  0.031331  0.222879
 -0.101466 -0.089273  0.118538
  0.419280  0.591037  0.202972
  0.917839  0.577716  0.667373
  0.548101  0.091651  0.748783
  0.051165  0.092952  0.245484
EA165
 1.0000000000000000
     4.350562    0.000000    0.000000
    -0.331506    4.337913   -0.000000
     0.075865   -0.456377    4.323978
 H   O  
   8   4
Direct
  0.181710  0.478988  0.402407
  0.185299  0.166508  0.206037
  0.665482  0.487696  0.905190
  0.655288  0.181764  0.695985
  0.331484  0.988707  0.754103
  0.154200  0.664468  0.728987
  0.607715  1.049193  0.228540
  0.799470  0.776549  0.275615
  0.189798  0.387994  0.188023
  0.682337  0.405199  0.689533
  0.130474  0.880989  0.704064
  0.597223  0.824410  0.212408
EA166
 1.0000000000000000
     4.396806    0.000000    0.000000
     0.000000    4.396806    0.000000
     0.000000    0.000000    4.222537
 H   O  
   8   4
Direct
  0.833807  0.440868  0.484814
  0.602445  0.177387  0.498951
  0.773311  0.738295  0.013332
  0.555671  0.766830  0.299939
  0.305008  0.939145  0.516880
  0.189384  0.725653  0.781655
  0.258463  0.343348  0.133074
  0.085791  0.092045 -0.049409
  0.802703  0.238927  0.573266
  0.582155  0.829510  0.080279
  0.243244  0.729976  0.558045
  0.055014  0.270762  0.082976
EA167
 1.0000000000000000
     4.352429   -0.000000   -0.000000
    -0.402006    4.333824    0.000000
     0.000000   -0.403159    4.327517
 H   O  
   8   4
Direct
  0.924951  0.571948  0.831946
  0.804230  0.237777  0.709378
  0.422548  0.880649  0.951238
  0.253779  1.056038  0.718043
  0.285196  0.451516  0.046145
  0.491470  0.265881  0.231073
  1.159045  1.009757  0.329879
  0.819562  1.038436  0.241422
  0.869207  0.441146  0.642807
  0.433931  0.942663  0.741758
  0.397478  0.460089  0.240393
  0.958149  0.891297  0.302767
EA168
 1.0000000000000000
     4.337699    0.000000    0.000000
    -0.002614    4.337698   -0.000000
     0.051847   -0.091427    4.337596
 H   O  
   8   4
Direct
  0.459367  0.307549  0.651695
  0.444843  0.129532  0.956563
  0.412331  0.781673  0.267507
  0.671800  0.929821  0.461829
 -0.043396  0.313799  0.129667
  0.047752  0.302971  0.471899
  0.946212  0.629670  0.821769
  1.015509  0.954341  0.958870
  0.394317  0.326724  0.866639
  0.552763  0.740930  0.435500
  0.133857  0.298061  0.263721
  0.848676  0.808274  0.921166
EA169
 1.0000000000000000
     4.861014   -0.000000   -0.000000
    -2.407618    4.222894    0.000000
     0.000000   -2.758751    3.975298
 H   O  
   8   4
Direct
  0.801752  1.066983  0.716800
  0.592440  0.660809  0.643025
  1.075518  0.584814  0.736577
  0.699199  0.373563  0.558082
 -0.018186  0.988569  0.270243
  0.107550  0.728034  0.138025
  0.462224  0.457583  0.231734
  0.164619  0.355910 -0.003035
  0.648521  0.920339  0.794603
  0.885965  0.349152  0.536871
  0.182694  0.994164  0.294964
  0.358040  0.344156 -0.001809
EA170
 1.0000000000000000
     4.530941    0.000000    0.000000
     0.000000    4.530941    0.000000
     0.000000    0.000000    3.975971
 H   O  
   8   4
Direct
  0.141143  0.966827  0.850181
  0.201790  0.660619  0.695181
  0.660371  0.465928  0.870003
  0.732134  0.175509  0.682262
  0.971276  0.703364  0.344694
  1.026801  0.399356  0.187185
  0.455759  1.127297  0.446974
  0.430872  0.883203  0.183727
  0.100858  0.757740  0.880480
  0.624019  0.254281  0.873839
  0.950362  0.493067  0.389288
  0.345781  0.948665  0.395118
EA171
 1.0000000000000000
     4.339699    0.000000    0.000000
     0.000000    4.375436    0.000000
     0.000000    0.000000    4.299116
 H   O  
   8   4
Direct
  0.390542  0.740784  0.548464
  0.576321  0.874544  0.273534
  0.691536  0.687928  0.883987
  0.997049  0.866558  0.845534
  0.274008  0.348842  0.904340
  0.359074  0.064346  0.709006
  0.888132  0.300852  0.444316
  1.094924  0.162997  0.188316
  0.449470  0.700737  0.333550
  0.901251  0.701440  0.962998
  0.444884  0.214259  0.852266
  0.934597  0.314624  0.223369
EA172
 1.0000000000000000
     4.529370   -0.000000   -0.000000
    -1.517195    4.267706    0.000000
     0.000000   -1.606148    4.222781
 H   O  
   8   4
Direct
  0.446140  0.209005  0.291834
  0.639288  0.052513  0.422592
  0.703940  0.705488  0.034865
  0.883055  0.545967  0.180017
  0.195385  0.042699  0.793575
 -0.011694  0.255343  0.924360
  0.231796  0.713699  0.542669
  0.372889  0.536313  0.706643
  0.447052  0.104512  0.447575
  0.692945  0.602803  0.193651
  0.027227  0.057034  0.925458
  0.193332  0.608108  0.700649
EA173
 1.0000000000000000
     4.541264    0.000000    0.000000
    -1.374624    4.328220    0.000000
     0.000000   -1.390717    4.152179
 H   O  
   8   4
Direct
  0.586989  0.232163  0.107226
  0.246848  0.095876  0.174092
  1.075299  0.183567  0.572944
  0.739678  0.095748  0.659103
  0.826413  0.684623  0.828363
  0.491397  0.598581  0.919870
  0.329249  0.686946  0.324804
 -0.004901  0.603069  0.418663
  0.448416  0.247247  0.276181
  0.948115  0.238300  0.745752
  0.700242  0.744199  1.001543
  0.205158  0.743960  0.500145
EA174
 1.0000000000000000
     4.590409    0.000000    0.000000
    -0.054429    4.590086   -0.000000
     0.005761   -0.055721    3.873982
 H   O  
   8   4
Direct
  0.121519  0.732314  0.463785
  0.109762  1.063250  0.442860
  0.637213  0.780318  0.959783
  0.515766  1.009886  0.711117
  0.781169  0.462717  0.574077
  0.928444  0.498727  0.219076
  0.282806  0.478341  1.073167
  0.429541  0.489807  0.715675
  0.147550  0.890672  0.302383
  0.692716  0.909566  0.773474
  0.738601  0.481013  0.328422
  0.240542  0.463836  0.826386
EA175
 1.0000000000000000
     4.813059   -0.000000    0.000000
     0.000000    3.568602   -0.000000
    -0.544712    0.000000    4.751380
 H   O  
   8   4
Direct
  0.345337  0.366651  0.216308
  0.154904  0.645991  0.343361
  0.154663  0.133349  0.783692
  0.345096 -0.145991  0.656639
  0.654663  0.366651  0.783692
  0.845096  0.645991  0.656639
  0.845337  0.133349  0.216308
  0.654904 -0.145991  0.343361
  0.164559  0.487357  0.180432
  0.335441  0.012643  0.819568
  0.835441  0.487357  0.819568
  0.664559  0.012643  0.180432
EA176
 1.0000000000000000
     2.866704   -0.000000   -0.000000
     0.000000    2.866704   -0.000000
     0.000000    0.000000    9.930550
 H   O  
   8   4
Direct
  0.342995  0.517378  0.565021
  0.677511  0.611450  0.448559
  0.025412  0.369758  0.319568
 -0.091756  0.509834  0.175184
  0.446427 -0.207559  0.799778
  0.603487  0.249914  0.735512
  0.156683 -0.205230  0.027411
 -0.208269  0.177115  0.008850
  0.479495  0.371172  0.486420
  0.066344  0.620408  0.255248
  0.450086 -0.042355  0.714710
  0.051586  0.028115 -0.036261
EA177
 1.0000000000000000
     5.642273   -0.000000   -0.000000
     0.000000    2.960114   -0.000000
     0.000000    0.000000    4.886260
 H   O  
   8   4
Direct
  0.750527  0.028624  0.382506
  0.668138  0.470126  0.252131
  0.250527  0.471376  0.117494
  0.168138  0.029874  0.247869
  0.911964  0.932027  0.793656
  0.775333  0.497270  0.851328
  0.411964  0.567973  0.706344
  0.275333  1.002730  0.648672
  0.624935  0.251250  0.390763
  0.124935  0.248750  0.109237
  0.769102  0.820703  0.880416
  0.269102  0.679297  0.619584
EA178
 1.0000000000000000
     5.671587   -0.000000   -0.000000
     0.000000    5.671587   -0.000000
     0.000000    0.000000    2.537055
 H   O  
   8   4
Direct
  0.218990 -0.024197  0.985817
  0.398927  0.081001  0.605207
  0.024197  0.218990  0.235817
 -0.081001  0.398927 -0.144793
  0.087310  0.717897  0.735817
 -0.092627  0.612699  0.355207
  0.669503  0.087310  0.485817
  0.774701 -0.092627  0.105207
  0.300983 -0.056804  0.658976
  0.056804  0.300983 -0.091024
  0.005317  0.750504  0.408976
  0.636896  0.005317  0.158976
EA179
 1.0000000000000000
     4.732824   -0.000000   -0.000000
     1.577608    4.462149    0.000000
     1.577608   -2.231075    3.864334
 H   O  
   8   4
Direct
  0.471240  0.102694 -0.100974
  0.524662 -0.080747  0.103404
  0.548877  0.563876  0.360208
  0.602299  0.380435  0.564586
  0.010059  0.641513 -0.100974
  0.063480  0.458071  0.103404
  0.010059  0.102694  0.437844
  0.063480 -0.080747  0.642222
  0.387643 -0.021947 -0.002430
  0.465279  0.439235  0.458751
 -0.073539  0.516871 -0.002430
 -0.073539 -0.021947  0.536388
EA180
 1.0000000000000000
     4.868756    0.000000    0.000000
    -2.434378    4.216467   -0.000000
     0.000000   -2.810978    3.975323
 H   O  
   8   4
Direct
  0.165548  0.513135  0.890238
  0.403185  0.521007  0.685270
  0.665548  0.513135  0.390238
  0.903185  0.521007  0.185270
 -0.084452  0.013135  0.140238
  0.153185  0.021007 -0.064730
  0.415548  0.013135  0.640238
  0.653185  0.021007  0.435270
  0.181267  0.465858  0.674492
  0.681267  0.465858  0.174492
 -0.068733 -0.034142 -0.075508
  0.431267 -0.034142  0.424492
EA181
 1.0000000000000000
     4.868756   -0.000000   -0.000000
     2.434378    4.216467   -0.000000
    -2.434378   -1.405489    3.975323
 H   O  
   8   4
Direct
  0.411164  0.594743  0.636355
  0.493898  0.451283  0.316763
  0.161164  0.344743  0.886355
  0.243898  0.201283  0.566763
 -0.088836  0.094743  0.136355
 -0.006102 -0.048717 -0.183237
  0.661164  0.844743  0.386355
  0.743898  0.701283  0.066763
  0.594937  0.453974  0.546881
  0.344937  0.203974  0.796881
  0.094937 -0.046026  0.046881
  0.844937  0.703974  0.296881
EA182
 1.0000000000000000
     4.868756    0.000000   -0.000000
     2.434378    4.216467   -0.000000
    -2.434378   -1.405489    3.975323
 H   O  
   8   4
Direct
  0.326407  0.539570  0.509787
  0.606133  0.518212  0.433427
  0.576407  0.789570  0.259787
  0.856133  0.768212  0.183427
 -0.173593  0.039570  0.009787
  0.106133  0.018212 -0.066573
  0.076407  0.289570  0.759787
  0.356133  0.268212  0.683427
  0.567460  0.442218  0.556786
  0.817460  0.692218  0.306786
  0.067460 -0.057782  0.056786
  0.317460  0.192218  0.806786
EA183
 1.0000000000000000
     4.463000   -0.000000   -0.000000
     0.000000    4.463000   -0.000000
     0.000000    0.000000    4.098000
 H   O  
   8   4
Direct
 -0.081610  0.537970 -0.115740
  0.085786  0.401857  0.178915
  0.459642  0.084161  0.870722
  0.609518 -0.065956  1.168538
 -0.080467  0.040604  0.410197
  0.052083 -0.136081  0.700290
  0.395588  0.530834  0.343984
  0.581438  0.409336  0.632988
 -0.087638  0.372782  0.038791
  0.440384 -0.083987  1.020219
 -0.083271 -0.154668  0.515437
  0.384030  0.399766  0.533121
EA184
 1.0000000000000000
     4.463000   -0.000000   -0.000000
     0.000000    4.463000   -0.000000
     0.000000    0.000000    4.098000
 H   O  
   8   4
Direct
 -0.068629  0.568144 -0.133224
  0.074409  0.409619  0.163353
  0.403715  0.022493  0.876787
  0.554967 -0.125892  1.174807
 -0.061070  0.056887  0.337468
  0.111156 -0.071888  0.632713
  0.454235  0.574582  0.415692
  0.572328  0.389855  0.707214
 -0.091511  0.396158  0.010243
  0.386489 -0.146131  1.025942
 -0.082554 -0.075901  0.524150
  0.442598  0.377908  0.517024
EA185
 1.0000000000000000
     4.338000   -0.000000    0.000000
    -0.004467    4.337998   -0.000000
     0.088618   -0.156217    4.336282
 H   O  
   8   4
Direct
  0.178418  0.639806  0.195396
  0.069352  0.371349  0.387281
  0.717752  0.613735  0.783024
  0.590329  0.286601  0.807467
  0.317187  0.016476  0.102954
  0.652354 -0.049277  0.176669
  0.062251  0.155827  0.754142
  0.128694 -0.185503  0.659520
 -0.001968  0.562960  0.304826
  0.525478  0.498439  0.779649
  0.449814 -0.025964  0.274096
 -0.001380 -0.054348  0.794879
EA186
 1.0000000000000000
     4.338000   -0.000000    0.000000
    -0.004467    4.337998   -0.000000
     0.088618   -0.156217    4.336282
 H   O  
   8   4
Direct
  0.080679  0.604165  0.363999
  0.244400  0.328652  0.205940
  0.555919  0.684916  0.790922
  0.661793  0.348740  0.787660
  0.328857 -0.055603  0.171355
  0.668973  0.018760  0.118486
 -0.009231  0.018749  0.560120
  0.161661 -0.072212  0.853020
  0.040117  0.406223  0.260631
  0.476784  0.475101  0.781575
  0.516925 -0.010473  0.282162
 -0.030350  0.016157  0.783770
EA187
 1.0000000000000000
     5.642000   -0.000000   -0.000000
     0.000000    2.960000   -0.000000
     0.000000    0.000000    4.886000
 H   O  
   8   4
Direct
  0.683271  0.092110  0.290916
  0.872765  0.458511  0.240074
  0.230718  0.709806  0.313526
  0.299847  0.291768  0.482701
  1.120995  0.740770  0.832278
  0.927873  0.375902  0.836229
  0.615713  0.940790  0.826375
  0.448611  1.349734  0.827179
  0.750131  0.365788  0.368185
  0.235928  0.382648  0.306527
  0.951071  0.699641  0.847367
  0.449449  1.022634  0.827806
EA188
 1.0000000000000000
     5.642000   -0.000000   -0.000000
     0.000000    2.960000   -0.000000
     0.000000    0.000000    4.886000
 H   O  
   8   4
Direct
  0.832414  0.142628  0.441746
  0.750484  0.347310  0.167138
  0.241856  0.716465  0.321234
  0.307390  0.289789  0.484291
  1.111703  0.882624  0.840400
  0.992153  0.417070  0.842048
  0.622763  0.917565  0.824556
  0.474145  1.351623  0.828088
  0.720685  0.355269  0.363131
  0.227630  0.390098  0.318940
  0.957885  0.737379  0.832731
  0.460675  1.025527  0.827942
EA189
 1.0000000000000000
     4.753664    0.000000    0.000000
     2.128203    4.250656    0.000000
    -2.118964   -1.339170    4.039315
 H   O  
   8   4
Direct
  0.375238  0.741011  0.420581
  0.496716  0.452790  0.553434
  0.125722  0.489491  0.665741
  0.247683  0.205280  0.804331
  0.638819  0.999939  0.191452
  0.736250  0.699327  0.297659
  0.876952  0.243520 -0.078620
  0.991540 -0.041925  0.055593
  0.495989  0.678568  0.621095
  0.240958  0.432677  0.869538
  0.744100  0.924560  0.382973
  0.992142  0.183421  0.123277
EA190
 1.0000000000000000
     4.544426    0.000000    0.000000
     1.249296    4.369333    0.000000
    -1.203675   -0.907751    4.110742
 H   O  
   8   4
Direct
  0.083704  0.507920  0.867151
  0.434567  0.500679  0.911931
  0.584786  0.006632  0.868076
  0.935723  0.000098  0.914323
  0.579505  0.510678  0.365696
  0.932125  0.497955  0.414089
  0.084921  0.008545  0.366856
  0.436264  0.000017  0.412381
  0.228356  0.639911  0.891879
  0.729330  0.139020  0.893701
  0.727496  0.640063  0.393819
  0.230390  0.139913  0.392245
EA191
 1.0000000000000000
     4.461372    0.000000    0.000000
     0.027735    4.461286    0.000000
    -0.025496   -0.025338    4.101069
 H   O  
   8   4
Direct
  0.029452  0.945741 -0.036549
  0.243407  0.709852  0.113381
  0.529170  0.946545  0.462443
  0.744560  0.711200  0.611125
  0.024198  0.448088  0.465804
  0.240835  0.211076  0.609032
  0.527852  0.446141 -0.038454
  0.742738  0.211282  0.111761
  0.058465  0.819990  0.154024
  0.559330  0.820564  0.652671
  0.055577  0.319367  0.653525
  0.557521  0.320921  0.152411
EA192
 1.0000000000000000
     5.064936    0.000000    0.000000
     0.000000    3.487488    0.000000
     0.000000    0.000000    4.620287
 H   O  
   8   4
Direct
  0.420174  0.750973  0.498784
  0.394258  0.309887  0.470641
  0.933869  1.006806  0.260249
  0.923024  1.021134  0.594428
  0.665362  0.181310  0.844545
  0.589991 -0.182578  1.009231
  0.176606  0.639745  0.921849
 -0.043334  0.341866  0.979368
  0.516466  0.512265  0.526978
  0.984728  0.865352  0.433154
  0.525225  0.072682  0.962858
  0.032121  0.579218  1.053739
EA193
 1.0000000000000000
     4.337985    0.000000    0.000000
    -0.000097    4.337985   -0.000000
     0.001904   -0.003358    4.338020
 H   O  
   8   4
Direct
  0.115768  0.868013  0.716700
  0.112932  0.627936  0.979823
  0.709074  0.781571  0.199498
  0.650456  0.892599  0.528742
  0.223521  0.210502  0.707903
  0.568898  0.186321  0.799472
  0.711026  0.268866  0.155434
  0.948652  0.284204  0.415275
  0.002723  0.806627  0.900618
  0.810851  0.806528  0.397704
  0.409433  0.332910  0.740292
  0.915204  0.348906  0.203491
EA194
 1.0000000000000000
     4.702513   -0.000000    0.000000
    -0.001349    4.702513    0.000000
     0.020997   -0.037034    3.690558
 H   O  
   8   4
Direct
  0.455709  0.040988  0.526790
  0.723859  0.170729  0.692564
 -0.039467  0.031696  0.017714
  0.212962  0.169739  0.208502
  0.579796  0.604374  0.771063
  0.406804  0.653255  1.116672
 -0.044701  0.610610  0.357633
  0.141476  0.640917  0.700426
  0.651708  0.088545  0.468002
  0.162240  0.070181 -0.013377
  0.537847  0.519052  1.004021
  0.119327  0.529217  0.478452
EA195
 1.0000000000000000
     5.382774    0.000000    0.000000
     0.000000    3.221960    0.000000
     0.000000    0.000000    4.705219
 H   O  
   8   4
Direct
  1.034007  1.031712  0.768131
  0.850872  0.671604  0.823038
  0.532678  1.030437  0.265792
  0.347729  0.674757  0.326215
  1.035978  0.531424  0.267613
  0.852346  0.172277  0.323730
  0.534673  0.531122  0.769336
  0.352247  0.170275  0.825182
  1.010712  0.735814  0.737371
  0.507684  0.734122  0.239176
  1.012217  0.235394  0.237717
  0.511884  0.234973  0.739160
EA196
 1.0000000000000000
     4.687768    0.000000    0.000000
     1.940435    4.267303    0.000000
    -1.940435   -1.249271    4.080343
 H   O  
   8   4
Direct
  0.669444  0.980086  0.430222
  0.502371  0.713037  0.192250
  0.758459  0.310992  0.849074
  0.655323  0.460057  0.569712
  0.937445  0.221180  0.188964
  0.740708 -0.022578 -0.047226
  0.321773  0.878004  0.840544
  0.127300  0.860835  0.482639
  0.709541  0.744238  0.348618
  0.583875  0.472862  0.743623
  0.954430 -0.009786  0.106326
  0.163770  1.015658  0.700905
EA197
 1.0000000000000000
     4.415717    0.000000    0.000000
     0.569360    4.378857   -0.000000
    -0.826743   -0.983319    4.220800
 H   O  
   8   4
Direct
  0.719822  0.584027  0.603730
  0.639711  0.244453  0.546574
  0.458174  0.338238  0.859557
  0.407073 -0.009570  0.808951
  1.128474  0.813110  0.934076
  0.792469  0.967855  0.894207
  0.973884  0.829853  0.349559
  0.887215  0.492764  0.295370
  0.550023  0.451611  0.523203
  0.302843  0.190233  0.776833
  1.000742  1.002844  1.009923
  0.802185  0.699906  0.267938
EA198
 1.0000000000000000
     4.485430   -0.000000   -0.000000
    -1.027922    4.366057    0.000000
     0.000000   -1.009663    4.167953
 H   O  
   8   4
Direct
  0.119552  0.555125  0.921602
 -0.057551  0.333499  0.615259
  0.614673  0.557627  0.423682
  0.442432  0.331949  0.116727
  0.120737  1.055723  0.422055
 -0.055363  0.833085  0.115549
  0.620066  1.053844  0.923734
  0.443930  0.832844  0.616523
 -0.012648  0.550490  0.739988
  0.484749  0.549725  0.239083
 -0.011070  1.050272  0.239766
  0.488571  1.049667  0.741732
EA199
 1.0000000000000000
     4.344364    0.000000    0.000000
    -0.004115    4.344363   -0.000000
     0.081271   -0.143275    4.323679
 H   O  
   8   4
Direct
  0.493838  0.098697  0.224032
  0.584258  0.019854  0.556231
  0.461136  0.570315  0.809492
  0.720523  0.597434  1.042369
 -0.104185  0.698723  0.422680
  0.196782  0.546939  0.526530
  0.033820 -0.127204  0.860162
  0.096356  0.186267  1.027400
  0.486979  0.177863  0.437213
  0.498914  0.621182  1.025679
 -0.025981  0.539078  0.552979
 -0.068511  0.047566  0.963330
EA200
 1.0000000000000000
     4.342033    0.000000    0.000000
    -0.181578    4.338235    0.000000
     0.049098   -0.263716    4.332168
 H   O  
   8   4
Direct
  0.917465  0.969597  0.643665
  0.710574  0.756626  0.435638
  0.915849  0.442153 -0.027212
  0.940127  0.200356  0.212100
  0.355084  1.011691  0.038883
  0.385048  0.665509  0.094617
  0.422137  0.445347  0.489487
  0.425358  0.189077  0.714433
  0.926036  0.804523  0.482615
  1.004929  0.411817  0.172630
  0.505599  0.857608  0.073173
  0.517869  0.391258  0.679081
EA201
 1.0000000000000000
     4.337911   -0.000000    0.000000
    -0.004120    4.337910   -0.000000
     0.081738   -0.144098    4.336593
 H   O  
   8   4
Direct
  0.217595  0.637142  0.554565
  0.381157  0.690613  0.240734
  0.319849  0.242857  1.118623
  0.404061  0.124847  0.792922
  0.628680  0.064799  0.510607
  0.925028  0.222096  0.389866
  0.734480  0.802907  0.982164
  0.942673  0.517111  0.923011
  0.415462  0.615354  0.446456
  0.409936  0.066278  1.006538
  0.748271  0.100419  0.323037
  0.948599  0.734832  0.985460
EA202
 1.0000000000000000
     4.427285    0.000000    0.000000
     0.000000    4.427285    0.000000
     0.000000    0.000000    4.164283
 H   O  
   8   4
Direct
  1.036684  0.306191  0.469705
  0.700800  0.381972  0.503425
  0.936524  0.863269 -0.018356
  0.757579  0.667072  0.222169
  0.455380  0.866840  0.560884
  0.244361  0.593219  0.611420
  0.498112  0.325689 -0.126172
  0.249535  0.461467  0.092282
  0.837027  0.230449  0.415821
  0.772657  0.871367  0.138169
  0.259196  0.786205  0.500357
  0.355042  0.274273  0.043104
EA203
 1.0000000000000000
     4.413465    0.000000    0.000000
     0.000000    4.416294    0.000000
     0.000000    0.000000    4.187714
 H   O  
   8   4
Direct
  0.362103  0.319027  0.907439
  0.664609  0.192606  1.036294
 -0.041139  0.300743  0.251349
  0.123079  0.128281  0.521428
  0.225026  0.801527  0.041863
 -0.093447  0.651601  0.037401
  0.559051  0.921621  0.462635
  0.486584  0.583705  0.398794
  0.563899  0.380255  0.977531
  0.000848  0.307419  0.479165
  0.029397  0.800723  0.148495
  0.626936  0.716744  0.510779
EA204
 1.0000000000000000
     4.412964    0.000000   -0.000000
     0.178638    4.409348    0.000000
    -0.142726   -0.216836    4.193794
 H   O  
   8   4
Direct
  0.884488  0.082390  0.621913
  0.829367  0.419748  0.545493
  0.381673  0.589388  0.626082
  0.329492  0.923423  0.534815
  0.344744  0.254362  0.239655
  0.178510  0.039891 -0.001119
  0.884427  0.575590  0.123025
  0.848585  0.915492  0.046646
  0.738994  0.221592  0.520977
  0.243069  0.723341  0.508878
  0.162589  0.140127  0.209280
  0.751847  0.721243  0.013470
EA205
 1.0000000000000000
     4.340702    0.000000   -0.000000
     0.155309    4.337922   -0.000000
    -0.155309   -0.149848    4.335334
 H   O  
   8   4
Direct
  0.834161  0.147658  0.762712
  1.129939  0.291052  0.649717
  0.494214  0.310316  0.355781
  0.725733  0.229550  0.100154
  0.381613  0.792241  0.601628
  0.542003  0.499298  0.733496
  0.174991  0.705523  0.292499
  0.055464  0.874991  0.005227
  1.020449  0.250072  0.835143
  0.599096  0.136619  0.250192
  0.571655  0.717410  0.703877
  0.210798  0.724322  0.074722
EA206
 1.0000000000000000
     4.527521    0.000000    0.000000
     1.150531    4.378896    0.000000
    -1.104658   -0.851908    4.117088
 H   O  
   8   4
Direct
  0.151451  0.105100  0.339493
  0.035594  0.293850  0.651149
  0.651723  0.104192  0.841819
  0.534003  0.293179  1.152330
  0.522496  0.834160  0.512178
  0.709857  1.062300  0.484394
  0.150164  0.604607  0.839948
  0.033404  0.794458  1.150678
 -0.023529  0.255821  0.415418
  0.476052  0.254675  0.916529
  0.659233  0.858703  0.385901
 -0.025003  0.755741  0.914913
EA207
 1.0000000000000000
     4.337569   -0.000000   -0.000000
     0.000000    4.337569   -0.000000
     0.000000    0.000000    4.337569
 H   O  
   8   4
Direct
 -0.012318  0.604319  0.992365
  0.196789  0.701753  0.726629
  0.354319  0.237682  0.257635
  0.451753  0.446789  0.523371
  0.997964 -0.008522  0.614489
  0.830159  0.296738  0.664420
  0.450575  0.890126  0.174049
  0.761029  0.910050  0.009561
  0.190530  0.568929  0.906006
  0.318929  0.440530  0.343994
  0.796877  0.086783  0.596091
  0.663396  0.824824  0.191390
EA208
 1.0000000000000000
     2.866656   -0.000000   -0.000000
     0.000000    7.585459   -0.000000
     0.000000    0.000000    3.753026
 H   O  
   8   4
Direct
  0.453501  0.265906  0.844466
  0.553505  0.458985  0.759092
  0.046499  0.234094  0.344466
 -0.053505  0.041015  0.259092
  0.046499  0.765906  0.655534
 -0.053505  0.958985  0.740908
  0.453501  0.734094  0.155534
  0.553505  0.541015  0.240908
  0.492994  0.346409  0.646442
  0.007006  0.153591  0.146442
  0.007006  0.846409  0.853558
  0.492994  0.653591  0.353558
EA209
 1.0000000000000000
     4.804571   -0.000000   -0.000000
     0.000000    4.804571   -0.000000
     0.000000    0.000000    3.535330
 H   O  
   8   4
Direct
  0.223691  0.041396  0.910760
  0.396098 -0.111757  0.613786
 -0.041396  0.223691  0.160760
  0.111757  0.396098 -0.136214
  0.776309 -0.041396  0.410760
  0.603902  0.111757  0.113786
  0.041396  0.776309  0.660760
 -0.111757  0.603902  0.363786
  0.369311  0.070362  0.725454
 -0.070362  0.369311 -0.024546
  0.630689 -0.070362  0.225454
  0.070362  0.630689  0.475454
EA210
 1.0000000000000000
     4.101585    0.000000    0.000000
     0.000000    4.101585    0.000000
     0.000000    0.000000    4.851050
 H   O  
   8   4
Direct
  0.173586  0.034686  0.186521
 -0.138846 -0.122273  0.294284
  0.173586  0.034686  0.686521
 -0.138846 -0.122273  0.794284
  0.673586  0.534686  0.186521
  0.361154  0.377727  0.294284
  0.673586  0.534686  0.686521
  0.361154  0.377727  0.794284
 -0.034741  0.087587  0.269196
 -0.034741  0.087587  0.769196
  0.465259  0.587587  0.269196
  0.465259  0.587587  0.769196
EA211
 1.0000000000000000
     3.837974    0.000000    0.000000
     0.000000    3.837974    0.000000
     0.000000    0.000000    5.540322
 H   O  
   8   4
Direct
  0.818292  0.487742  0.692376
  1.165001  0.607646  0.798770
 -0.181708  0.487742  0.192376
  0.165001  0.607646  0.298770
  0.318292 -0.012258  0.675770
  0.665001  0.107646  0.782164
  0.318292 -0.012258  0.175770
  0.665001  0.107646  0.282164
  1.016707  0.404613  0.783763
  0.016707  0.404613  0.283763
  0.516707 -0.095387  0.767157
  0.516707 -0.095387  0.267157
EA212
 1.0000000000000000
     4.337569    0.000000    0.000000
     0.000000    4.337569    0.000000
     0.000000    0.000000    4.337569
 H   O  
   8   4
Direct
 -0.034799 -0.155405  0.087733
 -0.023125  0.110354 -0.142639
  0.965201  0.344595  0.587733
  0.976875  0.610354  0.357361
  0.465201  0.344595  0.087733
  0.476875  0.610354 -0.142639
  0.465201 -0.155405  0.587733
  0.476875  0.110354  0.357361
  0.057924  0.045051  0.054906
  1.057924  0.545051  0.554906
  0.557924  0.545051  0.054906
  0.557924  0.045051  0.554906
EA213
 1.0000000000000000
     5.642000   -0.000000   -0.000000
     0.000000    2.960000   -0.000000
     0.000000    0.000000    4.886000
 H   O  
   8   4
Direct
  0.735742  0.133805  0.366281
  0.710289  0.538070  0.173945
  0.197647  0.732490  0.251612
  0.291112  0.373080  0.448798
  1.136075  0.754244  0.836030
  0.952584  0.372449  0.831418
  0.607736  0.842938  0.817443
  0.472070  1.291460  0.814848
  0.660985  0.426809  0.351645
  0.175857  0.420231  0.303944
  0.968989  0.696312  0.806402
  0.450277  0.969624  0.838623
EA214
 1.0000000000000000
     5.642000   -0.000000   -0.000000
     0.000000    2.960000   -0.000000
     0.000000    0.000000    4.886000
 H   O  
   8   4
Direct
  0.630080  0.135235  0.188496
  0.848418  0.416013  0.115429
  0.236702  0.650934  0.408265
  0.291525  0.175315  0.512712
  1.137919  0.820812  0.827092
  0.990987  0.385566  0.817056
  0.657529  1.018069  0.840847
  0.470386  1.393299  0.838173
  0.734303  0.365704  0.260581
  0.244441  0.339431  0.349402
  0.976082  0.711430  0.831594
  0.489321  1.070644  0.815220
EA215
 1.0000000000000000
     4.338000    0.000000   -0.000000
    -0.004088    4.337998    0.000000
     0.081726   -0.144119    4.336836
 H   O  
   8   4
Direct
  0.297835  0.593262  0.518547
  0.226172  0.865052  0.309168
  0.413651  0.345953  1.020700
  0.332754  0.125736  0.751948
  0.734002  0.134867  0.558432
  1.022599  0.290461  0.417800
  0.682126  0.783716  0.891838
  0.737712  0.436483  0.899984
  0.371263  0.696537  0.335765
  0.421600  0.129425  0.956477
  0.879866  0.119903  0.385492
  0.846702  0.631852  0.889518
EA216
 1.0000000000000000
     4.463000   -0.000000   -0.000000
     0.000000    4.463000   -0.000000
     0.000000    0.000000    4.098000
 H   O  
   8   4
Direct
 -0.073893  0.563008 -0.103931
  0.073367  0.404555  0.190231
  0.405475  0.048554  0.852748
  0.579514 -0.075739  1.149085
 -0.062925  0.030524  0.390258
  0.068655 -0.138744  0.686064
  0.425263  0.549900  0.358329
  0.585833  0.413590  0.657296
 -0.063442  0.371728  0.009035
  0.405121 -0.112537  1.012574
 -0.106910 -0.127861  0.546023
  0.404402  0.398079  0.527006
EA217
 1.0000000000000000
     4.463000   -0.000000   -0.000000
     0.000000    4.463000   -0.000000
     0.000000    0.000000    4.098000
 H   O  
   8   4
Direct
 -0.082867  0.540936 -0.142660
  0.083100  0.402091  0.151442
  0.456760  0.055631  0.896596
  0.582379 -0.117118  1.193165
 -0.077582  0.074931  0.361662
  0.086146 -0.054521  0.662242
  0.434668  0.556299  0.389528
  0.573812  0.392184  0.684640
 -0.109597  0.405345  0.040736
  0.420810 -0.118405  1.033952
 -0.069880 -0.099284  0.503939
  0.419965  0.373610  0.517843
EA218
 1.0000000000000000
     4.463000   -0.000000   -0.000000
     0.000000    4.463000   -0.000000
     0.000000    0.000000    4.098000
 H   O  
   8   4
Direct
 -0.112381  0.508913 -0.118480
  0.042294  0.360729  0.177511
  0.431906  0.053104  0.874443
  0.582077 -0.096543  1.172362
 -0.066813  0.054973  0.375674
  0.083244 -0.095428  0.673134
  0.443287  0.569122  0.370364
  0.593413  0.420315  0.668700
 -0.127378  0.339939  0.030367
  0.413372 -0.115390  1.023585
 -0.085464 -0.113855  0.524307
  0.424614  0.401153  0.520131
EA219
 1.0000000000000000
     4.463000   -0.000000   -0.000000
     0.000000    4.463000   -0.000000
     0.000000    0.000000    4.098000
 H   O  
   8   4
Direct
 -0.038561  0.597189 -0.131308
  0.117497  0.450464  0.164683
  0.431234  0.053751  0.873135
  0.582196 -0.095107  1.171049
 -0.070041  0.051478  0.375850
  0.079142 -0.099862  0.673267
  0.418179  0.538102  0.376601
  0.566343  0.387282  0.674901
 -0.052552  0.428646  0.018233
  0.413281 -0.114533  1.022643
 -0.089486 -0.117461  0.524214
  0.398235  0.369418  0.525215
EA220
 1.0000000000000000
     4.454877    0.000000    0.000000
    -0.000287    4.454877   -0.000000
     0.005263   -0.009284    4.112882
 H   O  
   8   4
Direct
  0.473563  0.597642  0.577905
  0.726053  0.836396  0.585226
  0.842701  0.555905  0.177297
  0.752551  0.884865  0.111176
  0.341468  0.056605  0.174811
  0.251618  0.385872  0.110152
  0.157027  0.150243  0.613299
 -0.013127  0.145514  0.290487
  0.676749  0.633616  0.655603
  0.909434  0.738003  0.069122
  0.408387  0.239056  0.067493
  0.049760  0.280561  0.463648
EA221
 1.0000000000000000
     4.376791    0.000000    0.000000
     0.000000    4.376791    0.000000
     0.000000    0.000000    4.261313
 H   O  
   8   4
Direct
  0.163862  0.087840  0.632103
  0.480964  0.234971  0.576054
  0.667961  0.083112  0.125131
  0.982326  0.237808  0.074101
  0.121183  0.672821  0.244854
  0.117465  0.525327  0.574126
  0.621354  0.671225  0.746384
  0.616116  0.524891  1.076116
  0.320784  0.211332  0.732793
  0.820020  0.211036  0.228000
  0.049409  0.704334  0.458412
  0.548850  0.703642  0.959511
EA222
 1.0000000000000000
     4.897088    0.000000    0.000000
     0.000000    3.807657    0.000000
     0.000000    0.000000    4.376929
 H   O  
   8   4
Direct
  0.354136  0.422561  0.347922
  0.533111  0.325656  0.625933
  0.852716  0.924107  0.346604
  1.032269  0.826047  0.623809
  0.854830  0.424621  0.846257
  1.033348  0.325543  1.124128
  0.352516  0.926224  0.845203
  0.527165  0.824085  1.125252
  0.506369  0.505460  0.471013
  1.005418  1.006285  0.469316
  1.007175  0.506239  0.969865
  0.503220  1.006316  0.971917
EA223
 1.0000000000000000
     4.457817    0.000000    0.000000
    -0.000177    4.457817    0.000000
     0.003245   -0.005727    4.107466
 H   O  
   8   4
Direct
  0.400253  0.664558  0.704900
  0.468764  0.519017  0.371609
  0.906450  0.162481  0.705001
  0.971738  0.020563  0.369073
  0.905335  0.661851  0.204996
  0.969753  0.521088 -0.131603
  0.405723  0.160592  0.206670
  0.471416  0.020440 -0.129968
  0.420283  0.709611  0.474377
  0.923563  0.209919  0.474691
  0.921712  0.710060 -0.025149
  0.422874  0.209206 -0.023319
EA224
 1.0000000000000000
     4.354258    0.000000    0.000000
     0.000000    4.354258    0.000000
     0.000000    0.000000    4.305610
 H   O  
   8   4
Direct
  0.695846  0.455680 -0.020729
  0.578732  0.509384  0.313451
  0.195765  0.457087  0.477124
  0.080141  0.509740  0.812067
  0.691868 -0.039975  0.476863
  0.576635  0.007211  0.812730
  0.194090 -0.043693 -0.022683
  0.078290  0.010511  0.311855
  0.564809  0.588965  0.102892
  0.065218  0.589927  0.601806
  0.560171  0.089740  0.603525
  0.063794  0.089971  0.101303
EA225
 1.0000000000000000
     4.376918   -0.000000    0.000000
    -0.002457    4.376917    0.000000
     0.047661   -0.084085    4.259379
 H   O  
   8   4
Direct
  0.580769  0.178691  0.091467
  0.379232  0.236853  0.388152
 -0.049465  0.605304  0.243432
  0.166183  0.827342  0.423095
  0.157441  0.139160  0.693212
 -0.102921  0.336772  0.836714
  0.576723  0.490048  0.682546
  0.616893  0.807282  0.843278
  0.537437  0.328494  0.257787
  0.086054  0.619853  0.422945
  0.103995  0.267387  0.874632
  0.499196  0.618843  0.854616
EA226
 1.0000000000000000
     4.356547   -0.000000    0.000000
    -0.159061    4.353642    0.000000
     0.042534   -0.228690    4.302141
 H   O  
   8   4
Direct
  0.337936  0.798037  0.542693
  0.567252  1.046947  0.428159
  0.834878  0.297742  0.546197
  1.061139  0.546937  0.427034
  0.836782  0.797893  0.043958
  1.067558  1.045603 -0.070203
  0.335982  0.298258  0.041739
  0.566169  0.546933 -0.071471
  0.552943  0.866100  0.551136
  1.049663  0.366626  0.550879
  1.052054  0.864862  0.052852
  0.551030  0.365928  0.051199
EA227
 1.0000000000000000
     4.435748    0.000000    0.000000
    -0.000966    4.435748   -0.000000
     0.017913   -0.031597    4.148248
 H   O  
   8   4
Direct
  0.112997  0.144463  0.199279
  0.099054  0.305971 -0.128818
  0.614006  0.141710  0.695952
  0.603388  0.308717  0.370937
  0.493932  0.865871  0.449858
  0.328780  0.664495  0.207058
  0.911425  0.802507  1.043288
  0.842550  0.745009  0.682452
  0.219344  0.289233  0.065644
  0.721503  0.289052  0.566572
  0.525019  0.754982  0.248653
  0.986640  0.698766  0.851598
EA228
 1.0000000000000000
     4.337999    0.000000    0.000000
    -0.004170    4.337997    0.000000
     0.083213   -0.146729    4.336719
 H   O  
   8   4
Direct
  0.787406  0.343572  0.238507
  0.981664  0.640559  0.281521
  0.271298 -0.168310  0.200330
  0.268295  0.187404  0.241945
  0.734594  1.002500  0.847312
  0.716845  0.877198  0.514975
  0.457791  0.420509  0.758174
  0.274655  0.708036  0.681731
  0.827287  0.543500  0.150699
  0.342175  0.019186  0.104836
  0.846121  1.001621  0.650996
  0.367161  0.523039  0.586206
EA229
 1.0000000000000000
     4.339296    0.000000    0.000000
     0.101968    4.338098    0.000000
    -0.073919   -0.153907    4.336603
 H   O  
   8   4
Direct
  0.659885  0.409048  0.870693
  0.944261  0.492153  1.075172
  0.791579  0.850586  0.244672
  1.017090  0.759652  0.508687
  0.353951  0.546468  1.059225
  0.552277  0.819302  0.966718
  0.428804  0.033179  0.444784
  0.493133  0.374338  0.511138
  0.866811  0.337496  0.927233
  0.798326  0.777914  0.454219
  0.356532  0.719913  0.923188
  0.453550  0.226399  0.341596
EA230
 1.0000000000000000
     4.397764    0.000000    0.000000
     0.000000    4.397764    0.000000
     0.000000    0.000000    4.219985
 H   O  
   8   4
Direct
  0.716634  0.376026  0.160050
  0.521234  0.589353  0.367408
  0.303019  0.336782  0.775999
  0.014355  0.489940  0.642247
  0.539747  1.089910  0.935814
  0.469300  0.841748  0.686929
  0.062618  1.096499  0.453642
 -0.035864  0.859567  0.202732
  0.701266  0.461251  0.372133
  0.132748  0.466442  0.835651
  0.616562  0.998323  0.741460
  0.109927  1.021462  0.242261
EA231
 1.0000000000000000
     4.410105    0.000000    0.000000
    -0.001879    4.410105    0.000000
     0.035456   -0.062531    4.196376
 H   O  
   8   4
Direct
  0.709850  0.401395  0.993119
  0.974889  0.574528  0.836107
  0.711829  0.901057  0.494046
  0.975948  1.074736  0.335813
  0.210879  0.901061  0.995368
  0.476092  1.073144  0.837334
  0.208962  0.400322  0.497439
  0.469708  0.575403  0.334956
  0.929302  0.401031  0.968557
  0.931215  0.901127  0.468445
  0.430283  0.899990  0.970220
  0.427870  0.401417  0.468031
EA232
 1.0000000000000000
     4.431606    0.000000    0.000000
     0.000000    4.431606    0.000000
     0.000000    0.000000    4.156367
 H   O  
   8   4
Direct
  0.182470  0.258967  1.119348
  0.482198  0.229017  0.932617
  0.642662  0.137461  0.407383
  0.942135  0.252974  0.551833
  0.329030  0.631453  0.556268
  0.167413  0.773897  0.264134
  0.828800  0.631485  1.057746
  0.666249  0.772248  0.765351
  0.268109  0.182996  0.919688
  0.858969  0.147079  0.366744
  0.218626  0.580972  0.361335
  0.718283  0.579863  0.863257
EA233
 1.0000000000000000
     4.370597   -0.000000    0.000000
    -0.002501    4.371775   -0.000000
     0.048687   -0.085894    4.270703
 H   O  
   8   4
Direct
  0.544049  0.393846  0.483823
  0.630490  0.306361  0.820746
  0.613003  0.851663  0.383765
  0.519676  0.720308  0.063994
 -0.028076  1.090690  0.586616
  0.179617  0.812269  0.617948
  0.041618  0.387432 -0.019223
  0.133340  0.322974  0.321699
  0.461343  0.377582  0.695295
  0.488110  0.896819  0.202670
 -0.028884  0.880759  0.657044
 -0.037239  0.390129  0.194761
EA234
 1.0000000000000000
     4.338812    0.000000    0.000000
     0.076786    4.338133    0.000000
    -0.076786   -0.075438    4.337477
 H   O  
   8   4
Direct
  0.296610  0.713731  0.545255
  0.550119  0.636993  0.307382
  0.827558 -0.026423  0.485464
  1.001113  0.236680  0.332715
  0.880948  0.572904  0.843705
  0.952650  0.698777  1.171677
  0.211803  0.002656  0.820763
  0.549111  0.073089  0.912258
  0.518353  0.717633  0.515448
  0.804614  0.132483  0.330990
  1.049887  0.640114  0.977755
  0.383359  0.133529  0.770455
EA235
 1.0000000000000000
     4.394116    0.000000    0.000000
     0.086765    4.393260    0.000000
    -0.083537   -0.081903    4.229005
 H   O  
   8   4
Direct
  0.089851  0.767279  0.680980
  0.354186  0.836450  0.915911
  0.584643  0.264855  0.682913
  0.849790  0.338736  0.915143
  0.589100  0.767321  0.182867
  0.854150  0.834693  0.417406
  0.088507  0.268048  0.180555
  0.352594  0.335786  0.416127
  0.247432  0.669989  0.810681
  0.744586  0.170348  0.811639
  0.746482  0.668979  0.311918
  0.245419  0.169919  0.310369
EA236
 1.0000000000000000
     4.364632    0.000000    0.000000
    -0.003379    4.364630    0.000000
     0.066103   -0.116601    4.283388
 H   O  
   8   4
Direct
  0.662438  0.206226  0.115264
  0.340152  0.116755  0.236290
  0.183275  0.686056  0.084612
 -0.149260  0.810658  0.101577
  0.964771  0.353423  0.458580
  1.031836  0.156664  0.744634
  0.528560  0.696161  0.415644
  0.445121  0.643354  0.762040
  0.454493  0.167050  0.047543
 -0.028785  0.628748  0.047153
  0.971328  0.142830  0.526681
  0.356305  0.657386  0.555900
EA237
 1.0000000000000000
     4.374177    0.000000    0.000000
     0.000000    4.374177    0.000000
     0.000000    0.000000    4.265980
 H   O  
   8   4
Direct
  0.697851  0.785929  0.300538
  1.000728  0.777172  0.112815
  0.202587  0.282794  0.299583
  0.502430  0.280793  0.106535
  0.856574  0.526699  0.565145
  1.060734  0.325508  0.779355
  0.202319  0.782039  0.799122
  0.501752  0.779773  0.605360
  0.842405  0.915192  0.188498
  0.341829  0.415126  0.184173
  0.851795  0.396688  0.750489
  0.341611  0.914295  0.683650
EA238
 1.0000000000000000
     4.412737    0.000000    0.000000
    -0.055378    4.412390    0.000000
     0.002639   -0.116052    4.191020
 H   O  
   8   4
Direct
  0.466042  0.376312  0.213781
  0.614631  0.658722  0.380055
 -0.034410 -0.124817  0.213438
  0.114788  0.156966  0.380311
  0.945580  0.267993  0.780973
  0.943026  0.608684  0.878672
  0.524097  0.954188  0.935417
  0.306507  0.757489  0.723364
  0.624341  0.529168  0.188024
  0.124043  0.027925  0.187917
  0.909672  0.468307  0.698712
  0.519378  0.787044  0.778468
EA239
 1.0000000000000000
     3.442731   -0.000000   -0.000000
     0.000000    3.442731   -0.000000
     0.000000    0.000000    6.885461
 H   O  
   8   4
Direct
 -0.183173  0.035501  0.066454
  0.092925 -0.047387 -0.101977
  0.316827  0.535501  0.816454
  0.592925  0.452613  0.648023
  0.316827  0.535501  0.316454
  0.592925  0.452613  0.148023
 -0.183173  0.035501  0.566454
  0.092925 -0.047387  0.398023
  0.090248  0.011885  0.035522
  0.590248  0.511885  0.785522
  0.590248  0.511885  0.285522
  0.090248  0.011885  0.535522
EA240
 1.0000000000000000
     3.007561   -0.000000   -0.000000
     0.000000    5.209096   -0.000000
     0.000000    0.000000    5.209096
 H   O  
   8   4
Direct
  0.328895  0.608254  0.462007
  0.594098  0.359480  0.485021
  0.328895  0.391746  0.037993
  0.594098  0.640520  0.014979
 -0.203037 -0.008148  0.095465
  0.137572  0.073637 -0.105785
 -0.203037  0.008148  0.404535
  0.137572 -0.073637  0.605785
  0.577007  0.532266  0.552973
  0.577007  0.467734 -0.052973
  0.065465 -0.065489  0.010321
  0.065465  0.065489  0.489679
EA241
 1.0000000000000000
     5.147286   -0.000000   -0.000000
     0.000000    2.397096   -0.000000
     0.000000    0.000000    6.614171
 H   O  
   8   4
Direct
 -0.014538  0.207475 -0.091846
  0.073178 -0.245584  0.055252
  0.485462  0.292525  0.408154
  0.573178  0.745584  0.555252
  0.514538 -0.207475 -0.091846
  0.426822  0.245584  0.055252
  0.014538  0.707475  0.408154
 -0.073178  0.254416  0.555252
 -0.058640  0.038109  0.036594
  0.441360  0.461891  0.536594
  0.558640 -0.038109  0.036594
  0.058640  0.538109  0.536594
EA242
 1.0000000000000000
     4.532044    0.000000    0.000000
     1.414304    4.305713    0.000000
     1.414304    1.024089    4.182153
 H   O  
   8   4
Direct
  0.188344 -0.050447 -0.049809
 -0.162398  0.005220  0.131616
  0.688344  0.449553  0.450191
  0.337602  0.505220  0.631616
  0.438344  0.199553  0.200191
  0.087602  0.255220  0.381616
  0.938344  0.699553  0.700191
  0.587602  0.755220  0.881616
 -0.025946  0.045227 -0.081806
  0.474054  0.545227  0.418194
  0.224054  0.295227  0.168194
  0.724054  0.795227  0.668194
EA243
 1.0000000000000000
     4.337569   -0.000000   -0.000000
     0.000000    4.337569   -0.000000
     0.000000    0.000000    4.337569
 H   O  
   8   4
Direct
  0.038945  0.175220  0.028978
 -0.063505 -0.160182  0.058029
  0.538945  0.675220  0.028978
  0.436495  0.339818  0.058029
  0.038945  0.675220  0.528978
 -0.063505  0.339818  0.558029
  0.538945  0.175220  0.528978
  0.436495 -0.160182  0.558029
  0.024560 -0.015038 -0.087007
  0.524560  0.484962 -0.087007
  0.024560  0.484962  0.412993
  0.524560 -0.015038  0.412993
EA244
 1.0000000000000000
     3.956300   -0.000000    0.000000
     0.000000    3.956300    0.000000
     0.000000    0.000000    5.213875
 H   O  
   8   4
Direct
  0.081670  0.628691  0.952800
 -0.146589  0.447907  0.760734
  0.581670  0.128691  0.742176
  0.353411 -0.052093  0.550110
  0.581670  0.128691  0.242176
  0.353411 -0.052093  0.050110
  0.081670  0.628691  0.452800
 -0.146589  0.447907  0.260734
  0.064920  0.423403  0.852401
  0.564920 -0.076597  0.641777
  0.564920 -0.076597  0.141777
  0.064920  0.423403  0.352401
EA245
 1.0000000000000000
     5.642000   -0.000000   -0.000000
     0.000000    2.960000   -0.000000
     0.000000    0.000000    4.886000
 H   O  
   8   4
Direct
  0.680071  0.199713  0.249103
  0.855226  0.595921  0.258327
  0.220772  0.640581  0.330243
  0.294476  0.210387  0.484617
  1.143985  0.759386  0.830533
  0.961749  0.374745  0.828552
  0.642068  0.948344  0.835389
  0.473848  1.355636  0.840220
  0.727752  0.454552  0.360870
  0.218983  0.313861  0.316947
  0.975081  0.700494  0.839753
  0.475391  1.028480  0.840604
EA246
 1.0000000000000000
     5.642000   -0.000000   -0.000000
     0.000000    2.960000   -0.000000
     0.000000    0.000000    4.886000
 H   O  
   8   4
Direct
  0.792125  0.258466  0.451699
  0.761802  0.406230  0.152757
  0.228495  0.697228  0.328387
  0.313342  0.305737  0.510450
  1.146179  0.834302  0.838302
  1.007293  0.388743  0.836272
  0.648238  0.925552  0.835276
  0.497788  1.357328  0.841083
  0.709683  0.475334  0.337533
  0.224532  0.370913  0.344419
  0.986800  0.713234  0.826146
  0.485458  1.031024  0.838902
EA247
 1.0000000000000000
     4.463000   -0.000000   -0.000000
     0.000000    4.463000   -0.000000
     0.000000    0.000000    4.098000
 H   O  
   8   4
Direct
 -0.063286  0.567863 -0.127165
  0.092826  0.421196  0.168828
  0.432462  0.052450  0.875642
  0.581931 -0.097894  1.173564
 -0.069108  0.052493  0.375795
  0.080352 -0.098549  0.673226
  0.470497  0.595726  0.370923
  0.620471  0.446703  0.669222
 -0.077153  0.399255  0.022303
  0.413413 -0.116228  1.024459
 -0.088300 -0.116412  0.524243
  0.451747  0.427650  0.520535
EA248
 1.0000000000000000
     4.463000   -0.000000   -0.000000
     0.000000    4.463000   -0.000000
     0.000000    0.000000    4.098000
 H   O  
   8   4
Direct
 -0.087616  0.538219 -0.122513
  0.067004  0.389977  0.173478
  0.430671  0.054399  0.871936
  0.582333 -0.093760  1.169842
 -0.067743  0.053955  0.375731
  0.082037 -0.096744  0.673177
  0.390931  0.511543  0.375939
  0.539247  0.360939  0.674278
 -0.102737  0.369311  0.026408
  0.413235 -0.113697  1.021765
 -0.086647 -0.114907  0.524281
  0.371063  0.342967  0.524709
EA249
 1.0000000000000000
     4.463000   -0.000000   -0.000000
     0.000000    4.463000   -0.000000
     0.000000    0.000000    4.098000
 H   O  
   8   4
Direct
 -0.075445  0.555425 -0.127229
  0.080608  0.408678  0.168754
  0.432638  0.053286  0.874988
  0.582335 -0.096836  1.172907
 -0.026056  0.094796  0.376557
  0.123650 -0.056011  0.673983
  0.430924  0.553686  0.373622
  0.580042  0.403843  0.671942
 -0.089494  0.386927  0.022366
  0.413754 -0.115332  1.023911
 -0.044977 -0.074140  0.525005
  0.411596  0.385349  0.522798
EA250
 1.0000000000000000
     4.463000   -0.000000   -0.000000
     0.000000    4.463000   -0.000000
     0.000000    0.000000    4.098000
 H   O  
   8   4
Direct
 -0.075422  0.550623 -0.122414
  0.079259  0.402460  0.173586
  0.430500  0.053565  0.872592
  0.581934 -0.094816  1.170504
 -0.110831  0.011690  0.374989
  0.038702 -0.139245  0.672441
  0.430574  0.553526  0.373428
  0.579748  0.403741  0.671750
 -0.090360  0.381604  0.026380
  0.412897 -0.114592  1.022317
 -0.130007 -0.157142  0.523539
  0.411284  0.385209  0.522636
EA251
 1.0000000000000000
     4.432337   -0.000000   -0.000000
    -0.033776    4.432209    0.000000
     0.001586   -0.069837    4.154822
 H   O  
   8   4
Direct
  0.549287  0.215015  0.100962
  0.408228  0.521301  0.196143
  0.546229  0.716324  0.596282
  0.405382  1.020837  0.698500
  1.047532  0.715581  0.099201
  0.907784  1.022427  0.194474
  1.049417  0.215651  0.598502
  0.909462  0.522075  0.695381
  0.437495  0.383327  0.014582
  0.432686  0.885428  0.514410
  0.936481  0.884394  0.012874
  0.937869  0.384641  0.513187
EA252
 1.0000000000000000
     4.419147    0.000000    0.000000
     0.000000    4.419147    0.000000
     0.000000    0.000000    4.179878
 H   O  
   8   4
Direct
  0.132368  0.259042  0.171985
  0.457029  0.366029  0.094901
  0.130838  0.759754  0.672320
  0.455552  0.865574  0.594098
  0.564070  0.309719  0.690941
  0.606835  0.027170  0.897389
  0.560927  0.817488  0.197333
  0.608292  0.529653  0.394175
  0.282744  0.264247  0.002183
  0.280801  0.764025  0.502130
  0.714593  0.205354  0.820738
  0.714699  0.709243  0.319064
EA253
 1.0000000000000000
     4.426297    0.000000    0.000000
     0.022631    4.426239    0.000000
    -0.021304   -0.021196    4.166690
 H   O  
   8   4
Direct
  0.688033  0.549471  0.980996
  0.504920  0.721908  0.723346
  0.191847  0.547874  0.476650
  0.005972  0.724344  0.224410
  0.453575  0.110443  0.559588
  0.633677  0.192926  0.260099
  0.116465  0.174135  0.752392
 -0.055610  0.086781  1.054864
  0.600648  0.746053  0.932421
  0.103284  0.745027  0.433060
  0.638710  0.059502  0.445769
  0.142678  0.070499  0.956408
EA254
 1.0000000000000000
     4.432576    0.000000    0.000000
    -0.000988    4.432576    0.000000
     0.018509   -0.032656    4.154282
 H   O  
   8   4
Direct
  0.407811  0.278683  0.262443
  0.627977  0.165388  0.521950
  0.906499  0.778893  0.260545
  1.127068  0.666945  0.520298
  0.907492  0.279221  0.761184
  1.129148  0.166836  1.019791
  0.401305  0.780647  0.763725
  0.626314  0.666549  1.018085
  0.415016  0.198439  0.479456
  0.914023  0.699431  0.477866
  0.915900  0.199177  0.978255
  0.412470  0.698260  0.979542
EA255
 1.0000000000000000
     4.351029    0.000000    0.000000
    -0.003581    4.351028    0.000000
     0.070929   -0.125072    4.310976
 H   O  
   8   4
Direct
  0.186452  0.985038  0.533132
  0.004437  0.802186  0.777436
  0.540201  0.560697  0.692779
  0.634639  0.221897  0.629946
  0.682848  0.986657  0.031052
  0.511252  0.798853  0.278485
 -0.029443  0.438274  0.402825
  0.116627  0.436846  0.072650
  0.195212  0.914114  0.744761
  0.690176  0.407073  0.748056
  0.703080  0.906431  0.237757
  0.132157  0.343400  0.273904
EA256
 1.0000000000000000
     4.947290    0.000000    0.000000
    -0.024255    3.684771    0.000000
     0.001476   -0.064996    4.476723
 H   O  
   8   4
Direct
 -0.039083  0.563584  0.509224
  0.261375  0.612797  0.441186
  0.410161  0.684407  0.886502
  0.701927  0.563195  0.955191
 -0.100069  0.193649  0.887976
  0.189041  0.063514  0.959910
  0.664402 -0.141387  0.475683
  0.486602  0.178577  0.375450
  0.088433  0.569392  0.344236
  0.544797  0.502418  0.833957
  0.035922  0.016710  0.828579
  0.640958  0.031934  0.315853
EA257
 1.0000000000000000
     5.454835    0.000000    0.000000
     0.000000    3.145969    0.000000
     0.000000    0.000000    4.755125
 H   O  
   8   4
Direct
 -0.089647  0.402861  0.073818
  0.137559  0.471830  0.262137
  0.410956  0.404819  0.571651
  0.637816  0.471580  0.760956
 -0.092146  0.904758  0.569859
  0.132103  0.970836  0.763253
  0.409065  0.904780  0.072225
  0.636595  0.971862  0.260288
  0.068415  0.545511  0.080053
  0.569292  0.546528  0.578783
  0.065655  1.047555  0.580400
  0.567453  1.046320  0.078356
EA258
 1.0000000000000000
     4.443267    0.000000    0.000000
     0.012157    4.443250    0.000000
    -0.011313   -0.011282    4.134704
 H   O  
   8   4
Direct
  0.686092  0.480532  0.281383
  0.965989  0.626903  0.127595
  0.187034  0.480745  0.780515
  0.465827  0.628321  0.625612
  0.180808  0.928771 -0.084183
  0.301471  0.941195  0.262088
  0.803957  0.964534  0.762953
  0.692225  0.952585  0.412574
  0.901620  0.506857  0.311006
  0.402577  0.507951  0.809239
  0.366874  0.953208  0.038137
  0.875401  0.937512  0.542308
EA259
 1.0000000000000000
     4.376954    0.000000    0.000000
    -0.000018    4.376961   -0.000000
     0.000350   -0.000618    4.261076
 H   O  
   8   4
Direct
 -0.145063  0.283484  0.258514
  0.147010  0.374063  0.076427
  0.927280  0.728323  0.427092
  0.866747  0.935449  0.709394
  0.497024  0.777846 -0.062939
  0.310841  0.818046  0.243665
  0.370709  0.327803  0.691224
  0.709981  0.400892  0.725462
  0.032618  0.198094  0.152311
  1.031418  0.856406  0.579615
  0.506553  0.746343  0.163048
  0.568104  0.287213  0.594426
EA260
 1.0000000000000000
     4.957810    0.000000    0.000000
     0.000000    3.726727    0.000000
     0.000000    0.000000    4.417127
 H   O  
   8   4
Direct
  0.545177  0.928522  0.939768
  0.298377  0.675751  0.934961
  0.543377  0.427918  0.441723
  0.294565  0.178878  0.431223
  1.043776  0.430081  0.938463
  0.797652  0.176213  0.932877
  1.045907  0.929655  0.439205
  0.799152  0.676757  0.432456
  0.440785  0.765855  1.065880
  0.435683  0.266279  0.565167
  0.939698  0.266594  1.064131
  0.941017  0.766440  0.564330
EA261
 1.0000000000000000
     4.379055    0.000000    0.000000
    -0.002408    4.379054   -0.000000
     0.046882   -0.082691    4.254970
 H   O  
   8   4
Direct
  0.857276  0.620984  0.731074
  0.878760  0.812672  1.039033
  0.358986  0.618083  0.229437
  0.374969  0.809424  0.538098
  0.364341  0.269999  1.078723
  0.597939  0.211944  0.809215
 -0.131522  0.263211  0.581378
  0.100281  0.206366  0.309874
  0.968974  0.638432  0.926876
  0.466610  0.634888  0.427697
  0.541657  0.147192  1.019269
  0.051561  0.148486  0.524263
EA262
 1.0000000000000000
     4.439867    0.000000    0.000000
     0.000000    4.439867    0.000000
     0.000000    0.000000    4.141164
 H   O  
   8   4
Direct
  0.836712  0.945142  0.976179
  0.995221  0.764492  0.706099
  0.203807  0.945845  0.342869
  0.474195  0.794743  0.515438
  0.821360  0.290928  0.412295
  0.857093 -0.055058  0.407865
  0.327496  0.290427  0.910245
  0.356377 -0.056174  0.907335
  0.817421  0.765611  0.843512
  0.325678  0.763510  0.346082
  0.713640  0.105496  0.364780
  0.215720  0.106927  0.864717
EA263
 1.0000000000000000
     4.385080    0.000000    0.000000
     0.000000    4.385080    0.000000
     0.000000    0.000000    4.245274
 H   O  
   8   4
Direct
  0.578256  0.809451  0.672387
  0.529767  1.046805  0.936431
  0.077997  0.809786  0.170857
  0.031239  1.047976  0.434510
  0.822271  0.337500  0.736763
  0.671802  0.586510  0.942887
  0.421516  0.424172  0.278615
  0.117865  0.541034  0.406165
  0.421435  0.903891  0.801680
 -0.078040  0.905109  0.300514
  0.757957  0.381977  0.951575
  0.326879  0.501047  0.470304
EA264
 1.0000000000000000
     4.404193    0.000000    0.000000
     0.029177    4.404097    0.000000
    -0.005899   -0.069800    4.208091
 H   O  
   8   4
Direct
  0.616604  0.226034  0.039314
  0.520703  0.057606  0.341073
  0.123994  0.217641  0.531207
  0.013447  0.057720  0.833037
  0.451557  0.427682  0.556078
  0.326819  0.687220  0.771766
  0.951132  0.426496  0.056320
  0.827208  0.686660  0.271630
  0.673867  0.058876  0.175196
  0.171118  0.051008  0.671836
  0.513597  0.604650  0.680692
  1.013693  0.603566  0.180449
EA265
 1.0000000000000000
     4.346935    0.000000    0.000000
     0.078221    4.346232    0.000000
    -0.077793   -0.076406    4.321787
 H   O  
   8   4
Direct
  0.370251  0.377766  0.229906
  0.626628  0.563153  0.395964
 -0.129893  0.374666  0.729411
  0.127741  0.559341  0.893622
 -0.127059  0.873750  0.233380
  0.130528  1.058959  0.396488
  0.372778  0.878055  0.748784
  0.636026  1.066889  0.896260
  0.562044  0.482222  0.194417
  0.062086  0.478086  0.692634
  0.064668  0.977200  0.195919
  0.561946  0.981112  0.700247
EA266
 1.0000000000000000
     4.415298    0.000000    0.000000
     0.059722    4.414894    0.000000
    -0.056657   -0.055896    4.187983
 H   O  
   8   4
Direct
  0.853744  0.794543  0.635392
  0.943373  1.124414  0.568841
  0.855757  0.294241  0.132770
  0.949294  0.624095  0.072257
  0.532352 -0.029364  0.457677
  0.392096  0.097782  0.146194
  0.528892  0.464986  0.962509
  0.400900  0.607455  0.653921
  1.004053  0.946438  0.689389
  1.006834  0.444112  0.191092
  0.526907  0.148861  0.323763
  0.533391  0.647754  0.836208
EA267
 1.0000000000000000
     4.438425    0.000000    0.000000
    -0.000855    4.438425    0.000000
     0.016089   -0.028386    4.143184
 H   O  
   8   4
Direct
  1.096612  0.147857  0.217205
  0.792542  0.127872  0.399236
  0.596758  0.146612  0.717665
  0.292256  0.127243  0.898861
  0.463589  0.803170  0.378626
  0.559107  0.692504  0.715717
 -0.037218  0.803012 -0.119157
  0.058906  0.690703  0.217034
  0.911674  0.258684  0.260721
  0.411874  0.257728  0.760500
  0.511281  0.622151  0.499101
  0.010552  0.621384  0.000185
EA268
 1.0000000000000000
     4.636510    0.000000    0.000000
    -0.001354    4.081783    0.000000
     0.028846   -0.050888    4.312170
 H   O  
   8   4
Direct
  0.292817  0.343596  0.704210
  0.434945  0.651216  0.563623
  0.792508  0.344766  0.204716
  0.935143  0.651738  0.063358
  0.792346 -0.155720  0.704226
  0.934144  0.151314  0.562013
  0.290352 -0.157616  0.206781
  0.433322  0.146294  0.059899
  0.261535  0.575863  0.669555
  0.761586  0.577000  0.169450
  0.761068  0.076439  0.668916
  0.259438  0.073662  0.166725
EA269
 1.0000000000000000
     4.352916    0.000000   -0.000000
     0.090418    4.351976   -0.000000
    -0.064891   -0.135293    4.308710
 H   O  
   8   4
Direct
  0.700580  1.007527  0.195431
  0.791256  0.674236  0.096465
  0.702002  0.507900  0.694856
  0.792915  0.174174  0.597430
  0.093627  0.165616  0.119743
  0.219119 -0.103336  0.313614
  0.211436  0.721424  0.685930
  0.262818  0.369668  0.703289
  0.787931  0.884086  0.025403
  0.789801  0.383741  0.525534
  0.282878  0.073990  0.201555
  0.295062  0.542975  0.571469
EA270
 1.0000000000000000
     4.356303    0.000000    0.000000
     0.054524    4.355962   -0.000000
    -0.039020   -0.081672    4.301647
 H   O  
   8   4
Direct
  0.217159  0.698120  0.441231
  0.272341  0.346009  0.442151
  0.301242 -0.041369  0.916399
  0.515375  0.138325  1.133341
  0.737207  0.703371  0.772753
  0.792000  0.423477  0.976087
  0.821511 -0.137713  0.437125
  0.861372  0.169394  0.618638
  0.378520  0.541700  0.449138
  0.385779  0.162547  0.950119
  0.849840  0.636924  0.956008
  0.905283  0.067554  0.420235
EA271
 1.0000000000000000
     4.451371   -0.000000    0.000000
    -0.000384    4.451371    0.000000
     0.007103   -0.012531    4.119366
 H   O  
   8   4
Direct
  0.838206  0.820885  0.330653
  0.817236  1.148432  0.453301
  0.838526  0.321024  0.830181
  0.823964  0.648095  0.955330
  0.402693  0.049326  0.739180
  0.434505 -0.012833  1.105763
  0.575333  0.444615  0.395805
  0.312392  0.633160  0.534631
  0.960165  0.990960  0.398548
  0.963831  0.488212  0.899487
  0.286096  0.025862  0.937888
  0.529976  0.631705  0.509492
EA272
 1.0000000000000000
     5.406446   -0.000000   -0.000000
     0.000000    5.406446   -0.000000
     0.000000    0.000000    2.792000
 H   O  
   8   4
Direct
  0.083335  0.619226  0.228811
 -0.086876  0.399403  0.133622
 -0.083335 -0.119226  0.021189
  0.086876  0.100597  0.116378
  0.416665  0.619226  0.521189
  0.586876  0.399403  0.616378
  0.583335 -0.119226  0.728811
  0.413124  0.100597  0.633622
  0.003541  0.481371  0.387567
 -0.003541  0.018629 -0.137567
  0.496459  0.481371  0.362433
  0.503541  0.018629  0.887567
EA273
 1.0000000000000000
     5.573343   -0.000000   -0.000000
     0.000000    5.573343   -0.000000
     0.000000    0.000000    2.627287
 H   O  
   8   4
Direct
  0.528895  0.078763  0.508269
  0.424394 -0.024944  0.998162
  0.078763  0.528895  0.008269
 -0.024944  0.424394  0.498162
  0.028895  0.078763 -0.241731
 -0.075606 -0.024944  0.248162
  0.578763  0.528895  0.258269
  0.475056  0.424394  0.748162
  0.546711 -0.053819  0.743569
 -0.053819  0.546711  0.243569
  0.046711 -0.053819 -0.006431
  0.446181  0.546711  0.493569
EA274
 1.0000000000000000
     4.868772   -0.000000   -0.000000
     0.000000    4.868772   -0.000000
     0.000000    0.000000    3.442709
 H   O  
   8   4
Direct
  0.835679  0.024575  0.191280
  0.708178  0.042568 -0.212969
 -0.024575  0.835679  0.691280
 -0.042568  0.708178  0.287031
  0.164321 -0.024575  0.191280
  0.291822 -0.042568 -0.212969
  0.024575  0.164321  0.691280
  0.042568  0.291822  0.287031
  0.706144 -0.067142  0.021688
  0.067142  0.706144  0.521688
  0.293856  0.067142  0.021688
 -0.067142  0.293856  0.521688
EA275
 1.0000000000000000
     3.078754    0.000000    0.000000
     0.000000    3.078754    0.000000
     0.000000    0.000000    8.609724
 H   O  
   8   4
Direct
  0.453956  1.145759  0.053656
  0.447109  0.801512 -0.073904
  0.453956  0.259132  0.553656
  0.447109 -0.085115  0.426096
  0.010642  0.702446  0.303656
  0.003795  0.358199  0.176096
  0.897269  0.702446  0.803656
  0.890422  0.358199  0.676096
  0.598936  0.882670  0.020248
  0.598936 -0.003958  0.520248
  0.155622  0.439356  0.270248
  1.042250  0.439356  0.770248
EA276
 1.0000000000000000
     3.587302    0.000000    0.000000
    -1.449402    6.341666   -0.000000
     0.000000    0.000000    3.587302
 H   O  
   8   4
Direct
  0.566051 -0.012593  0.706825
  0.547316  0.023353  0.287412
  0.066051  0.487407  0.706825
  0.047316  0.523353  0.287412
  0.517358  0.237407  1.005518
  0.498623  0.273353  0.586106
  0.614744  0.737407  0.408131
  0.596009  0.773353 -0.011281
  0.386633 -0.010760  0.505763
 -0.113367  0.489240  0.505763
  0.337939  0.239240  0.804456
  0.435326  0.739240  0.207070
EA277
 1.0000000000000000
     4.868756    0.000000    0.000000
    -0.000000    4.868756   -0.000000
    -2.434378    2.434378    3.442731
 H   O  
   8   4
Direct
 -0.047292  0.047281  0.107641
  0.134407 -0.080699 -0.007463
  0.452708  0.547281  0.107641
  0.634407  0.419301 -0.007463
  0.202708  0.297281  0.607641
  0.384407  0.169301  0.492537
  0.702708  0.797281  0.607641
  0.884407  0.669301  0.492537
 -0.087115  0.033418 -0.100178
  0.412885  0.533418 -0.100178
  0.162885  0.283418  0.399822
  0.662885  0.783418  0.399822
EA278
 1.0000000000000000
     4.433000    0.000000    0.000000
    -0.001006    4.433000   -0.000000
     0.018488   -0.032621    4.153831
 H   O  
   8   4
Direct
  0.432885  0.304643  0.260423
  0.575164  0.152482  0.557186
  1.029617  0.788975  0.340328
  0.877324  0.518836  0.509304
  0.953877  0.285765  0.807932
  1.037066  0.080258  1.092989
  0.387640  0.648474  0.768765
  0.599241  0.774125  1.032673
  0.408283  0.135885  0.406638
  0.846765  0.667363  0.341337
  0.889947  0.105851  0.922299
  0.446030  0.621336  0.992283
EA279
 1.0000000000000000
     4.869000   -0.000000   -0.000000
     0.000000    4.869000   -0.000000
     0.000000    0.000000    3.443000
 H   O  
   8   4
Direct
  0.863666  0.038434  0.192174
  0.695022 -0.136166 -0.095331
  0.159976  0.825469  0.498157
  0.406162  0.627944  0.517389
  0.325226  0.167032  0.185667
  0.330322  0.234797 -0.246726
 -0.194488  0.224774  0.722232
 -0.022207  0.352567  0.395008
  0.869005 -0.130949  0.042862
  0.355677  0.819373  0.553201
  0.325876  0.322044  0.007867
 -0.189471  0.379527  0.544132
EA280
 1.0000000000000000
     4.869000   -0.000000   -0.000000
     0.000000    4.869000   -0.000000
     0.000000    0.000000    3.443000
 H   O  
   8   4
Direct
  0.843724  0.030584  0.212553
  0.713831 -0.136817 -0.120191
  0.334026  0.779491  0.772699
  0.246143  0.719926  0.351908
  0.346660  0.192300  0.269646
  0.327803  0.198780 -0.172400
 -0.145503  0.206501  0.681085
 -0.016109  0.383107  0.359783
  0.874975 -0.127534  0.045894
  0.373513  0.829001  0.504973
  0.314011  0.317425  0.054643
 -0.172322  0.375172  0.535040
EA281
 1.0000000000000000
     4.415000    0.000000    0.000000
     0.059717    4.414596    0.000000
    -0.056660   -0.055899    4.188244
 H   O  
   8   4
Direct
  0.953455  0.815671  0.590373
  0.781360  1.106019  0.684788
  0.875367  0.304790  0.131739
  0.881627  0.651086  0.148013
  0.349419 -0.152199  0.387788
  0.233387  0.026639  0.095438
  0.387040  0.348778  0.915940
  0.231038  0.489755  0.620049
  0.863917  0.918981  0.773303
  0.859325  0.474144  0.281628
  0.392316  0.023122  0.258145
  0.393894  0.521815  0.774673
EA282
 1.0000000000000000
     4.415000    0.000000    0.000000
     0.059717    4.414596    0.000000
    -0.056660   -0.055899    4.188244
 H   O  
   8   4
Direct
  0.781574  0.861738  0.700075
  0.970319  1.124024  0.579223
  0.865739  0.309104  0.142512
  0.869252  0.655599  0.141855
  0.383867 -0.172173  0.442646
  0.195077 -0.067802  0.150320
  0.341193  0.324243  0.915246
  0.189457  0.469198  0.619142
  0.909012  1.026688  0.774931
  0.881900  0.483866  0.285166
  0.372844 -0.017923  0.278803
  0.366584  0.482534  0.758598
EA283
 1.0000000000000000
     4.433000    0.000000    0.000000
    -0.001006    4.433000   -0.000000
     0.018488   -0.032621    4.153831
 H   O  
   8   4
Direct
  0.357859  0.247705  0.243507
  0.550178  0.149858  0.534395
  0.870911  0.721999  0.290423
  1.142462  0.731868  0.522640
  0.878520  0.268369  0.749397
  1.072949  0.171504  1.038709
  0.340910  0.551021  0.855972
  0.579415  0.784573  0.964997
  0.371938  0.095886  0.410704
  0.952675  0.628232  0.482331
  0.894295  0.116546  0.916376
  0.472051  0.604883  1.034748
EA284
 1.0000000000000000
     4.366605    0.000000    0.000000
     0.001929    4.366605   -0.000000
     0.050766   -0.102455    4.280086
 H   O  
   8   4
Direct
  0.405940  0.874280  0.290933
  0.145861  0.949391  0.063644
  0.794577  0.227246  0.172773
  0.754691  0.579148  0.155130
  0.275946  0.243720  0.691419
  0.245762  0.594017  0.646558
  0.983317  0.850686  0.695828
  0.682362  0.907848  0.521175
  0.186993  0.914673  0.282717
  0.682099  0.400334  0.265497
  0.171652  0.426342  0.773414
  0.787679  0.757146  0.644569
EA285
 1.0000000000000000
     4.444609    0.000000    0.000000
     0.000000    4.444609    0.000000
     0.000000    0.000000    4.132330
 H   O  
   8   4
Direct
  0.245367 -0.076223  0.169561
  0.246729  0.220669 -0.024625
  0.752379  0.423911  0.168034
  0.748514  0.721611 -0.024764
  0.751518 -0.075994  0.667522
  0.746173  0.221899  0.475278
  0.252194  0.422781  0.668611
  0.247556  0.721334  0.477484
  0.155791  0.123219  0.161989
  0.659445  0.621921  0.161534
  0.657697  0.121574  0.661482
  0.158851  0.620604  0.663327
EA286
 1.0000000000000000
     4.374679    0.000000    0.000000
     0.011134    4.374665    0.000000
     0.035772   -0.099917    4.264467
 H   O  
   8   4
Direct
  0.024522  0.168797  0.180253
  0.211552  0.152224  0.486061
  0.526117  0.164363  0.680809
  0.713259  0.151437  0.986667
  0.442906  0.428767  0.352966
  0.750665  0.593048  0.412180
 -0.057881  0.431318  0.851881
  0.250212  0.594723  0.911693
  0.089265  0.029228  0.341512
  0.591038  0.026729  0.843612
  0.636161  0.480214  0.252955
  0.135595  0.482438  0.752149
EA287
 1.0000000000000000
     4.446388    0.000000    0.000000
    -0.000482    4.446388   -0.000000
     0.008824   -0.015578    4.128340
 H   O  
   8   4
Direct
  0.996954  0.247980  0.684060
  0.959249  0.258958  0.312648
  0.490805  0.252975  1.183099
  0.450488  0.255121  0.811637
  0.638499  0.825447  0.318261
  0.345632  0.972774  0.442969
  0.137516  0.824229  0.822643
 -0.157286  0.972791  0.940222
  0.966399  0.385745  0.504912
  0.464001  0.386747  0.999700
  0.554545  0.936903  0.500272
  0.050945  0.938290  1.001280
EA288
 1.0000000000000000
     4.422312    0.000000   -0.000000
     0.034724    4.422176   -0.000000
    -0.025503   -0.046496    4.174115
 H   O  
   8   4
Direct
  0.537813  0.510806  0.682498
  0.599175  0.254640  0.918113
  0.539357  1.016306  0.188490
  0.592753  0.750131  0.413971
  0.866854  0.492011  0.437903
  1.160689  0.314445  0.363798
  0.866979  0.992589  0.938399
  1.160893  0.815105  0.864589
  0.504651  0.453733  0.903708
  0.497650  0.949276  0.404700
  0.954299  0.289249  0.436853
  0.954663  0.789935  0.938132
EA289
 1.0000000000000000
     4.414412    0.000000    0.000000
     0.058719    4.414022   -0.000000
    -0.055036   -0.056342    4.189314
 H   O  
   8   4
Direct
  0.646493  0.835936  0.438538
  0.614854  0.534374  0.616795
  0.044582  0.786572  0.962375
  0.349472  0.651726  1.070537
  0.807471  0.132679  0.231232
  1.026772  0.340706  0.418970
  0.298367  0.132618  0.731878
  0.520967  0.343802  0.911216
  0.729963  0.720465  0.616231
  0.257052  0.775952  0.904418
  0.838744  0.230496  0.438025
  0.336346  0.229619  0.937950
EA290
 1.0000000000000000
     4.461763    0.000000   -0.000000
     0.000756    4.461762   -0.000000
    -0.000695   -0.000694    4.100275
 H   O  
   8   4
Direct
  0.500609  0.591829  0.619123
  0.263081  0.374085  0.481657
  1.001482  1.091384  0.620222
  0.764272  0.872684  0.483836
  1.000790  0.591708  0.117078
  0.758957  0.375678 -0.014694
  0.502911  1.091769  0.118707
  0.264329  0.874417 -0.017563
  0.478139  0.406667  0.496416
  0.979288  0.905754  0.498276
  0.974581  0.405382 -0.002545
  0.479538  0.906360 -0.003427
EA291
 1.0000000000000000
     4.407808   -0.000000    0.000000
     0.016328    4.407778    0.000000
     0.000024   -0.045327    4.201072
 H   O  
   8   4
Direct
  0.386455  0.345666  0.239877
  0.527367  0.601229  0.036818
  0.509406  0.987579  0.824544
  0.436122  0.944255  0.467480
  0.785999  0.689343  0.749147
  1.003718  0.460057  0.597797
  0.835196  0.019968  0.342307
  1.054213 -0.023286  0.058832
  0.344600  0.545435  0.152779
  0.358328  1.034759  0.663354
  0.957998  0.559319  0.800123
  1.044130  0.052079  0.276999
EA292
 1.0000000000000000
     4.451969    0.000000    0.000000
     0.013633    4.451948   -0.000000
    -0.012612   -0.012573    4.118412
 H   O  
   8   4
Direct
  1.049094 -0.144609  0.941269
  0.899087  0.165119  0.992126
  1.050703  0.355238  0.440535
  0.901023  0.664978  0.493060
  0.550767  0.354851  0.942685
  0.399588  0.663962  0.994080
  0.546529 -0.144844  0.438042
  0.397825  0.164443  0.496328
  0.894885 -0.012244  0.853827
  0.896290  0.488014  0.354148
  0.395924  0.486692  0.855597
  0.391211 -0.011148  0.355495
EA293
 1.0000000000000000
     4.419096    0.000000    0.000000
    -0.000007    4.419096   -0.000000
     0.000128   -0.000226    4.179820
 H   O  
   8   4
Direct
  0.475818  0.378260  0.084992
  0.265043  0.115370  0.184773
  0.976102  0.376347  0.584202
  0.764381  0.114163  0.683855
  0.974188  0.874537  0.071892
  0.760809  0.618469  0.184873
  0.473484  0.878113  0.583921
  0.262471  0.615338  0.682876
  0.371281  0.200954  0.002046
  0.871426  0.199124  0.501264
  0.864542  0.697156 -0.002917
  0.368757  0.701259  0.500423
EA294
 1.0000000000000000
     4.418997    0.000000    0.000000
     0.022360    4.418940   -0.000000
    -0.015340   -0.032195    4.180039
 H   O  
   8   4
Direct
  0.693071  0.567303  1.151069
  0.445271  0.649268  0.904603
  0.693586  0.066557  0.654034
  0.450427  0.147842  0.402251
  0.194740  0.066760  1.152028
 -0.049225  0.149359  0.901510
  0.192343  0.566727  0.652296
 -0.050446  0.649383  0.400656
  0.643750  0.555105  0.924495
  0.648794  0.054331  0.426377
  0.149028  0.055336  0.924506
  0.147696  0.555379  0.424572
EA295
 1.0000000000000000
     4.422578    0.000000    0.000000
     0.041410    4.422385    0.000000
    -0.039083   -0.038719    4.173755
 H   O  
   8   4
Direct
  0.226623  0.885300  0.881571
  0.080642  1.055400  0.602321
  0.616572  0.601164  0.938109
  0.566869  0.428656  0.619504
  0.017173  0.367393  0.314042
  0.165058  0.668727  0.223170
  0.724390  0.881364  0.382686
  0.585499  1.068750  0.112105
  0.042214  0.992015  0.820377
  0.471308  0.573051  0.764333
 -0.030098  0.573899  0.251571
  0.538614  0.984941  0.319962
EA296
 1.0000000000000000
     4.448458    0.000000   -0.000000
    -0.000422    4.448457    0.000000
     0.007714   -0.013617    4.124543
 H   O  
   8   4
Direct
  0.739648  0.501909  0.811495
  0.647607  0.280360  0.540161
  0.238627  0.500235  0.313539
  0.147364  0.279907  0.040829
  0.738290  1.001161  0.311591
  0.645697  0.780863  0.039414
  0.234172  1.004460  0.811185
  0.144453  0.778881  0.542874
  0.703822  0.488575  0.579355
  0.203349  0.487977  0.081261
  0.702139  0.988855  0.079484
  0.200000  0.987725  0.579073
EA297
 1.0000000000000000
     4.423865    0.000000   -0.000000
     0.029474    4.423767    0.000000
    -0.018999   -0.044489    4.171141
 H   O  
   8   4
Direct
  0.691518  0.273565  0.343847
  0.766132  0.476668  0.637064
  0.694377  0.773225  0.845266
  0.768247  0.976648  1.138655
  0.194200  0.771933  0.344171
  0.268344  0.974398  0.638237
  0.195697  0.273375  0.834175
  0.257727  0.471920  1.134488
  0.851450  0.395078  0.439530
  0.853906  0.895312  0.941111
  0.353753  0.893904  0.440133
  0.350503  0.395467  0.938406
EA298
 1.0000000000000000
     4.435444    0.000000    0.000000
     0.034158    4.435312    0.000000
    -0.031956   -0.031711    4.149353
 H   O  
   8   4
Direct
  0.971671  0.342563  0.766767
  0.745916  0.093498  0.841020
  0.309020  0.759713  0.666899
  0.275530  0.702532  1.031416
  0.309602  0.260289  0.167794
  0.275827  0.203187  0.532260
  0.981675  0.836014  0.264694
  0.744665  0.598211  0.339527
  0.790667  0.247117  0.682251
  0.275787  0.600924  0.823116
  0.275600  0.101617  0.323944
  0.793795  0.752419  0.182975
EA299
 1.0000000000000000
     4.382196    0.000000    0.000000
    -0.002317    4.382196   -0.000000
     0.044303   -0.078190    4.248852
 H   O  
   8   4
Direct
  0.634667  0.721138  1.075872
  0.556694  0.782946  0.729259
  0.141224  0.724854  0.577645
  0.057721  0.779126  0.231133
  0.464689  0.073641  0.218456
  0.791526  0.204145  0.212080
  0.195146  0.103652  0.888370
  0.061472  0.169517  0.562373
  0.553845  0.624564  0.886564
  0.063567  0.622508  0.390102
  0.581016  0.258794  0.260086
  0.083229  0.256263  0.773043
EA300
 1.0000000000000000
     4.792923    0.000000    0.000000
     0.000000    4.792923    0.000000
     0.000000    0.000000    3.553180
 H   O  
   8   4
Direct
  0.190271  0.869839  0.812166
  0.300127  0.744601  1.177846
  0.711748  0.877209  0.353569
  0.890358  0.955983  0.696498
 -0.125013  0.373019  0.921175
  0.162084  0.514759  0.872410
  0.375754  0.373080  0.420084
  0.662085  0.516327  0.370515
  0.363260  0.832041  0.945410
  0.898825  0.859492  0.456272
  0.068789  0.361757  1.000746
  0.569759  0.362853  0.499114
EA301
 1.0000000000000000
     4.432990    0.000000    0.000000
     0.005657    4.432987    0.000000
    -0.001116   -0.013265    4.153986
 H   O  
   8   4
Direct
  0.559762  0.358551  0.408526
  0.533678  0.115989  0.141231
  0.747967  0.890259  0.818680
  0.448918  0.766402  0.678600
  0.059583  0.360470  0.907955
  0.032619  0.118441  0.640239
  0.246437  0.890978  0.317978
 -0.053831  0.770450  0.177235
  0.649183  0.292512  0.206300
  0.546420  0.950891  0.751763
  0.148615  0.294590  0.705484
  0.045625  0.953844  0.250569
EA302
 1.0000000000000000
     4.397640   -0.000000    0.000000
    -0.001901    4.397639    0.000000
     0.035974   -0.063493    4.219346
 H   O  
   8   4
Direct
  0.836797  1.033886  0.307088
  1.052867  0.775983  0.196432
  0.331045  1.031986  0.808678
  0.552478  0.778719  0.697784
  0.837682  0.533493  0.807377
  1.055024  0.276553  0.696724
  0.337914  0.532666  0.309538
  0.553939  0.275226  0.197476
  0.841998  0.841856  0.189872
  0.340638  0.841207  0.689573
  0.843906  0.341644  0.689812
  0.343022  0.341072  0.191516
EA303
 1.0000000000000000
     4.450616    0.000000    0.000000
     0.000000    4.450616    0.000000
     0.000000    0.000000    4.121070
 H   O  
   8   4
Direct
  0.200592  0.932691  0.557177
  0.400893  0.757004  0.317946
  0.907191  0.419193  0.480766
  0.834284  0.090549  0.407950
  0.193841  0.522041  0.744302
  0.475106  0.577310  0.955450
  0.694718  0.021845  0.746179
  0.976411  0.075778  0.957110
  0.192853  0.786233  0.382264
  0.749232  0.291223  0.394639
  0.280938  0.477143  0.955204
  0.781969 -0.023889  0.956806
EA304
 1.0000000000000000
     4.420452    0.000000    0.000000
    -0.001236    4.420452   -0.000000
     0.023031   -0.040654    4.176389
 H   O  
   8   4
Direct
  0.127277  0.825455  0.814766
 -0.098562  0.946961  1.068379
  0.627790  0.827824  0.316268
  0.397485  0.944116  0.568129
  0.129604  0.325968  0.314994
 -0.097256  0.446286  0.568334
  0.628752  0.324255  0.817101
  0.402113  0.446341  1.069635
  0.060413  1.010209  0.921751
  0.556353  1.010872  0.423142
  0.061730  0.510337  0.422089
  0.561476  0.509269  0.923298
EA305
 1.0000000000000000
     5.642273   -0.000000   -0.000000
     0.000000    2.960114   -0.000000
     0.000000    0.000000    4.886260
 H   O  
   8   4
Direct
  0.661261  0.513253  0.351141
  0.695486  0.026926  0.255103
  0.338739  0.486747  0.648859
  0.304514  0.973074  0.744897
  0.161261 -0.013253  0.148859
  0.195486  0.473074  0.244897
  0.838739  1.013253  0.851141
  0.804514  0.526926  0.755103
  0.686853  0.209821  0.419156
  0.313147  0.790179  0.580844
  0.186853  0.290179  0.080844
  0.813147  0.709821  0.919156
EA306
 1.0000000000000000
     4.337569   -0.000000   -0.000000
     0.000000    4.337569   -0.000000
     0.000000    0.000000    4.337569
 H   O  
   8   4
Direct
  0.434263  0.891663  0.453918
  0.305095  0.774887  0.759719
  0.141663  0.184263  0.296082
  0.024887  0.055095 -0.009719
  0.587696  0.224586  0.970093
  0.744265  0.493263  0.805368
  0.783897  0.766174  0.305510
  0.982581  0.552792  0.502557
  0.385642  0.958451  0.661362
  0.208451  0.135642  0.088638
  0.543039  0.407151  0.849539
  0.858522  0.556035  0.316933
EA307
 1.0000000000000000
     5.406446   -0.000000   -0.000000
     0.000000    5.406446   -0.000000
     0.000000    0.000000    2.792000
 H   O  
   8   4
Direct
 -0.119560  0.583062  0.232122
  0.100018  0.413485  0.130778
  0.083062 -0.119560 -0.017878
 -0.086515  0.100018 -0.119222
  0.380440  0.083062  0.732122
  0.600018 -0.086515  0.630778
  0.583062  0.380440  0.482122
  0.413485  0.600018  0.380778
  0.019542  0.503453  0.387099
  0.003453  0.019542  0.137099
  0.519542  0.003453  0.887099
  0.503453  0.519542  0.637099
EA308
 1.0000000000000000
     4.732824   -0.000000   -0.000000
     1.577608    4.462149    0.000000
     1.577608   -2.231075    3.864334
 H   O  
   8   4
Direct
  0.662792 -0.009115  0.016562
  0.322536  0.104307  0.012954
  0.662792  0.490885  0.516562
  0.322536  0.604307  0.512954
  0.162792  0.490885  0.016562
 -0.177464  0.604307  0.012954
  0.162792 -0.009115  0.516562
 -0.177464  0.104307  0.512954
  0.514672 -0.095193 -0.029515
  0.514672  0.404807  0.470485
  0.014672  0.404807 -0.029515
  0.014672 -0.095193  0.470485
EA309
 1.0000000000000000
     3.928161   -0.000000    0.000000
     1.964080    4.691739   -0.000000
    -1.964080    1.550637    4.428086
 H   O  
   8   4
Direct
  0.147244  0.774580  0.822234
  0.058055  1.093938  0.682396
  0.854094  0.075533  0.123187
  0.764905  0.394892 -0.016650
  0.647244  0.575533  0.623187
  0.558055  0.894892  0.483350
  0.354094  0.274580  0.322234
  0.264905  0.593938  0.182396
 -0.069141  0.983619  0.740372
  0.637709  0.284572  0.041326
  0.430859  0.784572  0.541326
  0.137709  0.483619  0.240372
EA310
 1.0000000000000000
     4.293514    0.000000    0.000000
     0.000000    4.293514    0.000000
     0.000000    0.000000    4.427039
 H   O  
   8   4
Direct
 -0.101907  0.419784  0.126157
  0.163316  0.538532 -0.072471
  0.398093 -0.080216  0.126157
  0.663316  0.038532 -0.072471
 -0.101907 -0.080216  0.626157
  0.163316  0.038532  0.427529
  0.398093  0.419784  0.626157
  0.663316  0.538532  0.427529
 -0.061409  0.541684 -0.053686
  0.438591  0.041684 -0.053686
 -0.061409  0.041684  0.446314
  0.438591  0.541684  0.446314
EA311
 1.0000000000000000
     4.415000    0.000000    0.000000
     0.059717    4.414596    0.000000
    -0.056660   -0.055899    4.188244
 H   O  
   8   4
Direct
  0.945254  0.826012  0.562388
  0.796230  1.124436  0.683636
  0.965173  0.288794  0.155576
  0.964133  0.631025  0.104969
  0.432954 -0.212129  0.373948
  0.292692 -0.045075  0.085336
  0.522546  0.350958  0.928919
  0.328007  0.463683  0.643724
  0.937961  0.963938  0.745230
  0.970756  0.480539  0.272113
  0.436257 -0.020867  0.261116
  0.530984  0.471395  0.736270
EA312
 1.0000000000000000
     4.415000    0.000000    0.000000
     0.059717    4.414596    0.000000
    -0.056660   -0.055899    4.188244
 H   O  
   8   4
Direct
  0.986441  0.823144  0.632223
  0.836352  1.122207  0.750206
  0.972683  0.328486  0.077697
  0.972076  0.672221  0.126497
  0.502388 -0.149821  0.409312
  0.325891 -0.021085  0.119951
  0.404701  0.281944  0.826543
  0.299144  0.472544  0.537856
  1.008844  0.986919  0.788030
  0.960182  0.484247  0.243359
  0.518037 -0.008093  0.234423
  0.433888  0.475542  0.723397
EA313
 1.0000000000000000
     4.420000    0.000000    0.000000
    -0.001234    4.420000    0.000000
     0.023037   -0.040672    4.176738
 H   O  
   8   4
Direct
  0.111252  0.886153  0.876117
 -0.081961  0.984059  1.168359
  0.589947  0.822928  0.336013
  0.425191  0.953082  0.633998
  0.064002  0.313224  0.357972
  0.118197  0.588266  0.581297
  0.658599  0.340469  0.796342
  0.474840  0.447384  1.092085
  0.105144  1.028705  1.054715
  0.599949  0.984142  0.495673
  0.198107  0.484692  0.392597
  0.640000  0.505590  0.950717
EA314
 1.0000000000000000
     4.446000    0.000000   -0.000000
    -0.000466    4.446000    0.000000
     0.008790   -0.015561    4.127961
 H   O  
   8   4
Direct
  1.013506  0.268734  0.652814
  1.003599  0.234614  0.285779
  0.505422  0.207014  1.145000
  0.505233  0.411259  0.849413
  0.676692  0.891954  0.332039
  0.332253  0.892284  0.330801
  0.176800  0.888365  0.832917
 -0.167596  0.889186  0.831617
  1.007150  0.386969  0.455272
  0.506731  0.418302  1.084833
  0.503779  0.885533  0.476697
  0.003905  0.892384  0.977680
EA315
 1.0000000000000000
     4.446000    0.000000   -0.000000
    -0.000466    4.446000    0.000000
     0.008790   -0.015561    4.127961
 H   O  
   8   4
Direct
  1.009749  0.233625  0.683918
  1.007362  0.266588  0.316869
  0.504690  0.306170  1.164700
  0.505519  0.096245  0.872069
  0.675025  0.886355  0.352910
  0.330582  0.886697  0.354760
  0.174952  0.888750  0.850499
 -0.169447  0.889655  0.852515
  1.008569  0.385455  0.515010
  0.505746  0.308609  0.929118
  0.503254  0.900934  0.498539
  0.003265  0.893042  0.996913
EA316
 1.0000000000000000
     4.446000    0.000000   -0.000000
    -0.000466    4.446000    0.000000
     0.008790   -0.015561    4.127961
 H   O  
   8   4
Direct
  1.015482  0.412879  0.754461
  1.006973  0.125157  0.553355
  0.505566  0.161428  0.932449
  0.505979  0.419522  0.690632
  0.675638  0.883131  0.307983
  0.331194  0.883675  0.308813
  0.176918  0.890469  0.899473
 -0.167477  0.891292  0.897922
  1.009371  0.342753  0.531179
  0.505342  0.379935  0.922102
  0.503511  0.901077  0.452696
  0.003930  0.893277  1.044135
EA317
 1.0000000000000000
     4.446000    0.000000   -0.000000
    -0.000466    4.446000    0.000000
     0.008790   -0.015561    4.127961
 H   O  
   8   4
Direct
  1.009011  0.230225  0.477731
  1.006623  0.517365  0.277788
  0.507138  0.482782  1.254305
  0.504210  0.220069  1.016215
  0.675985  0.891141  0.377153
  0.331542  0.891207  0.376909
  0.174521  0.886112  0.783967
 -0.169878  0.887031  0.786234
  1.007109  0.447942  0.500822
  0.507403  0.438647  1.023364
  0.503437  0.881305  0.522080
  0.002927  0.891622  0.930467
EA318
 1.0000000000000000
     4.593928    0.000000    0.000000
     0.036174    4.593786    0.000000
    -0.030459   -0.030220    3.867971
 H   O  
   8   4
Direct
  0.793296  0.793216  0.591044
  0.830479  0.552316  0.867032
  0.843740  0.270444  0.107701
  0.764136 -0.031606  0.227156
  0.438774  0.823144  0.221554
  0.353565  0.962829  0.571140
  0.445671  0.324624  0.726887
  0.359198  0.462011  1.076396
  0.690590  0.691208  0.773293
  0.790968  0.165495  0.314525
  0.271867  0.890902  0.354420
  0.278395  0.392486  0.858623
EA319
 1.0000000000000000
     4.441895    0.000000   -0.000000
     0.012353    4.441878   -0.000000
    -0.006226   -0.021583    4.136042
 H   O  
   8   4
Direct
  0.668509  0.549945  0.907741
  0.880806  0.288556  0.832103
  0.363892  0.903575  1.057358
  0.407666  0.862433  0.688893
  0.812452  0.668931  0.351651
  1.062045  0.895488  0.428461
  0.362837  0.401385  0.556555
  0.403362  0.360267  0.187845
  0.803611  0.474729  0.740553
  0.254534  0.894564  0.853566
  0.919306  0.839216  0.260114
  0.251710  0.392696  0.353980
EA320
 1.0000000000000000
     4.410983   -0.000000    0.000000
    -0.000773    4.410983    0.000000
     0.014419   -0.025443    4.195455
 H   O  
   8   4
Direct
  0.559360  0.885065  0.858407
  0.242818  1.006508  0.953601
  0.835264  0.222153  0.802153
  0.940043  0.517540  0.970605
  1.019213  1.013476  0.338236
  0.863662  0.718081  0.449538
  0.341994  0.599800  0.429363
  0.374942  0.254804  0.415535
  0.413132  1.043644  0.810460
  0.779388  0.366020  0.968564
  1.012347  0.869714  0.512938
  0.226000  0.415405  0.390902
EA321
 1.0000000000000000
     4.415298    0.000000    0.000000
     0.026515    4.415218    0.000000
    -0.017181   -0.040250    4.187194
 H   O  
   8   4
Direct
  0.572560  0.393669  0.170212
  0.428195  0.678326  0.021078
  1.079828 -0.135063  0.094219
  0.829386  0.096892  0.154537
  0.566119 -0.102368  0.657204
  0.420067  0.185681  0.514864
  0.080889  0.401418  0.669515
 -0.074214  0.680136  0.517890
  0.585989  0.613265  0.168039
  1.040301  0.081733  0.090402
  0.578493  0.117755  0.660009
  0.086644  0.621560  0.664410
EA322
 1.0000000000000000
     4.420075    0.000000    0.000000
     0.000222    4.420075    0.000000
     0.021069   -0.040923    4.176619
 H   O  
   8   4
Direct
  0.323794  0.432156  1.049441
 -0.002560  0.436280  0.918855
  0.826654  0.935051  1.052642
  0.500082  0.933851  0.922914
  0.824077  0.433702  0.551896
  0.498142  0.436368  0.420346
  0.323994  0.931959  0.550025
 -0.002115  0.936373  0.418779
  0.205302  0.390006  0.858634
  0.708198  0.888549  0.862994
  0.706335  0.391104  0.360716
  0.205819  0.889958  0.358959
EA323
 1.0000000000000000
     4.433383    0.000000    0.000000
     0.019213    4.433341    0.000000
    -0.012298   -0.028831    4.153319
 H   O  
   8   4
Direct
  0.534954  0.742852  0.864641
  0.248073  0.583076  0.976457
  0.885862  0.320181  0.878541
  0.767745  0.052192  1.077146
  0.230954  0.296627  0.203704
  0.374201  0.247023  0.535396
  0.712104  0.633414  0.168753
  0.913345  0.760187  0.441992
  0.329594  0.698368  0.797619
  0.808818  0.115930  0.857156
  0.193054  0.202490  0.410246
  0.703361  0.723323  0.382801
EA324
 1.0000000000000000
     4.408314    0.000000    0.000000
     0.016093    4.408284    0.000000
     0.000236   -0.045151    4.200162
 H   O  
   8   4
Direct
  0.558139  0.607122  0.952948
  0.326527  0.352089  0.889630
  1.063833  0.602018  0.448178
  0.826885  0.351215  0.388995
  0.901386  0.179963  0.786547
  0.956695 -0.125491  0.954035
  0.401511  0.180577  0.287061
  0.456765 -0.125210  0.453922
  0.373543  0.560947  0.836263
  0.876353  0.559370  0.335166
  0.821519 -0.024373  0.806072
  0.320795 -0.023360  0.307304
EA325
 1.0000000000000000
     4.416165    0.000000   -0.000000
     0.044573    4.415940   -0.000000
    -0.036799   -0.052308    4.185453
 H   O  
   8   4
Direct
  0.922373  0.617210  0.716662
  0.827458  0.695379  0.371052
  0.922872  0.116849  0.216747
  0.827700  0.195666 -0.128615
  0.422030  0.117494  0.721372
  0.332256  0.194868  0.374232
  0.422358  0.617646  0.218497
  0.328902  0.696785 -0.127188
  0.921602  0.780198  0.562615
  0.922023  0.280120  0.063030
  0.425544  0.279433  0.566345
  0.422190  0.781088  0.065048
EA326
 1.0000000000000000
     4.415405    0.000000   -0.000000
     0.058257    4.415021   -0.000000
    -0.054830   -0.055356    4.187393
 H   O  
   8   4
Direct
  0.292456  0.138490  0.538077
  0.193194  0.330875  0.248037
  0.171745  0.626654  1.005571
  0.271294  0.851011  0.753857
  0.623216  0.686610  0.668643
  0.744671  0.361398  0.716947
  0.617396  0.186616  0.164151
  0.737526 -0.140082  0.210449
  0.220944  0.340056  0.479038
  0.110446  0.815322  0.904239
  0.808264  0.564421  0.665563
  0.802171  0.063649  0.161761
EA327
 1.0000000000000000
     4.445256   -0.000000    0.000000
    -0.000497    4.445256   -0.000000
     0.009339   -0.016528    4.129435
 H   O  
   8   4
Direct
  0.247401 -0.031201  0.126573
  0.075750  0.267888  0.086946
  0.062973  0.433607  0.484593
  0.211831  0.719864  0.624311
  0.563039  0.433081 -0.016228
  0.712465  0.719186  0.123126
  0.749281 -0.033240  0.629034
  0.578895  0.265377  0.581165
  0.063355  0.053645  0.039635
  0.032563  0.648710  0.513696
  0.532391  0.648006  0.014068
  0.567190  0.050640  0.536453
EA328
 1.0000000000000000
     4.432996    0.000000    0.000000
     0.004805    4.432993    0.000000
     0.001391   -0.015721    4.153967
 H   O  
   8   4
Direct
  0.409848  0.087914  0.191314
  0.424760  0.422306  0.088920
  0.562041  0.751151  0.569709
  0.223026  0.824737  0.536051
  0.912087  0.087189  0.688533
  0.927085  0.422929  0.591372
  1.059718  0.754431  0.062083
  0.719517  0.824689  0.034758
  0.396511  0.219278  0.004898
  0.366855  0.658902  0.527936
  0.897814  0.221173  0.504340
  0.864629  0.660021  0.025681
EA329
 1.0000000000000000
     4.439882    0.000000    0.000000
     0.003488    4.439881   -0.000000
    -0.000669   -0.008155    4.141322
 H   O  
   8   4
Direct
  0.248436  0.231928  1.031042
  0.109042  0.190464  0.695441
  0.345561  0.719398  0.265844
  0.114134  0.500106  0.407303
  0.876898  0.123085  0.404413
  0.542918  0.026244  0.390539
  0.638142  0.700128  1.011293
  0.689918  0.670777  0.643484
  0.083465  0.131399  0.920526
  0.295659  0.612442  0.463234
  0.685342  0.146625  0.515556
  0.643483  0.553671  0.836433
EA330
 1.0000000000000000
     4.423700    0.000000   -0.000000
     0.030030    4.423598    0.000000
    -0.019687   -0.044702    4.171456
 H   O  
   8   4
Direct
  0.408449  0.217360  0.803625
  0.469782 -0.062613  1.011948
  0.474411  0.780830  0.422452
  0.361010  0.473292  0.292871
  0.974854  0.780108  0.922029
  0.861771  0.472687  0.791824
  0.907149  0.214224  0.302730
  0.976098 -0.064967  0.509508
  0.499225  0.154986  1.004934
  0.462896  0.567462  0.474630
  0.962221  0.566880  0.974466
  1.003070  0.152923  0.501768
EA331
 1.0000000000000000
     4.400102    0.000000    0.000000
     0.041770    4.399903    0.000000
    -0.023107   -0.072127    4.216414
 H   O  
   8   4
Direct
  0.265081  0.231399  0.563433
  0.329161  0.458289  0.834410
  0.766040  0.230111  0.066933
  0.828793  0.457711  0.337240
  0.829823  1.030820  0.420791
  0.853848  0.891381  0.754426
  0.349406  1.103252 -0.055816
  0.195143  0.889543  0.172977
  0.361033  0.426199  0.607664
  0.861642  0.424939  0.110943
  0.908186  0.855145  0.533513
  0.391104  0.929683  0.077531
EA332
 1.0000000000000000
     4.428737    0.000000    0.000000
    -0.001081    4.428737   -0.000000
     0.019971   -0.035246    4.161321
 H   O  
   8   4
Direct
 -0.066326  0.846695  0.412311
  0.113638  0.929941  0.717431
  0.432013  0.850063 -0.092838
  0.610625  0.928199  0.214820
  0.800268  0.284634  0.845094
  1.076613  0.445332  0.698195
  0.294756  0.287624  0.343411
  0.575189  0.446890  0.203380
  0.135538  0.843727  0.502906
  0.632976  0.842942 -0.000119
  0.873101  0.481439  0.778768
  0.371176  0.484444  0.281767
EA333
 1.0000000000000000
     4.419816   -0.000000    0.000000
    -0.001034    4.419816    0.000000
     0.019459   -0.034383    4.178146
 H   O  
   8   4
Direct
  0.530665  0.352909  0.965434
  0.609093  0.232717  0.626773
  0.120190  0.850849  1.049190
  0.009338  0.847853  0.699684
  0.620439  0.864661  0.543068
  0.525583  0.842710  0.187395
  0.247093  0.289214  0.247683
 -0.095978  0.293671  0.321166
  0.562646  0.167345  0.843137
  0.180484  0.904437  0.832447
  0.687789  0.910627  0.326748
  0.085538  0.172213  0.347105
EA334
 1.0000000000000000
     4.408025    0.000000   -0.000000
     0.051335    4.407726    0.000000
    -0.041074   -0.063472    4.201389
 H   O  
   8   4
Direct
  0.742453  0.127520  0.346874
  0.998302 -0.001456  0.133362
  0.741099  0.626510  0.861796
  0.996331  0.507168  0.642859
  0.294350  0.054112  0.607874
  0.615354  0.082648  0.745072
  0.269588  0.483420  0.161950
  0.546789  0.689251  0.222786
  0.929244  0.007478  0.352415
  0.936464  0.521179  0.864361
  0.416735  0.180462  0.749213
  0.358584  0.622585  0.317534
EA335
 1.0000000000000000
     4.416403    0.000000   -0.000000
     0.055882    4.416050   -0.000000
    -0.052378   -0.053464    4.184704
 H   O  
   8   4
Direct
  0.460232  0.252645  0.909794
  0.165386  0.428840  0.854490
  0.459450  0.751974  0.409942
  0.164472  0.928166  0.355220
  0.652845  0.320240  0.480932
  1.000577  0.353501  0.481373
  0.748974  0.988862  0.826404
  0.752046  0.680582  0.997840
  0.266106  0.238773  0.798158
  0.265449  0.738471  0.297916
  0.816112  0.443318  0.568207
  0.874091  0.808943  0.864816
EA336
 1.0000000000000000
     4.424814    0.000000    0.000000
    -0.000375    4.424814    0.000000
     0.007169   -0.012691    4.167944
 H   O  
   8   4
Direct
  0.919242  0.504187  1.011142
  1.015217  0.336093  0.706407
  0.666903  0.261859  0.429613
  0.556354  0.589633  0.420845
  0.488329  0.961177  0.949900
  0.624222  0.657917  0.833812
  0.319993  0.903429  0.565179
 -0.006430  0.793942  0.573189
  0.904870  0.307872  0.906056
  0.740175  0.468901  0.419597
  0.679064  0.860321  0.904805
  0.155362  0.843638  0.424301
EA337
 1.0000000000000000
     2.938867   -0.000000    0.000000
     0.000000    9.625379   -0.000000
    -0.560259    0.000000    2.884970
 H   O  
   8   4
Direct
 -0.130264  0.100384  0.436820
  0.113728  0.195847  0.144757
  0.369736  0.399616  0.936820
  0.613728  0.304153  0.644757
  0.604109  0.589106  0.473904
  0.329528  0.639145  0.008950
 -0.104109  0.824686  0.526096
  0.170472  0.874725  0.991050
  0.016536  0.100399  0.168424
  0.516536  0.399601  0.668424
  0.566362  0.668379  0.267147
 -0.066362  0.903959  0.732853
EA338
 1.0000000000000000
     3.442860   -0.000000   -0.000000
     0.000000    3.442860   -0.000000
     0.000000    0.000000    6.884945
 H   O  
   8   4
Direct
  0.197582 -0.083046  0.272065
 -0.157767  0.015202  0.395201
  0.416954  0.302418  0.227935
  0.515202  0.657767  0.104799
  0.583046  0.302418  0.852935
  0.484798  0.657767  0.729799
 -0.197582  0.083046  0.647065
  0.157767 -0.015202  0.770201
 -0.039815  0.067844  0.270233
  0.567844  0.539815  0.229767
  0.432156  0.539815  0.854767
  0.039815 -0.067844  0.645233
EA339
 1.0000000000000000
     4.782048   -0.000000   -0.000000
     0.000000    4.782048   -0.000000
     0.000000    0.000000    3.568710
 H   O  
   8   4
Direct
  0.185529  0.395370 -0.093767
  0.424973  0.207125  0.034167
  0.604630  0.814471 -0.093767
  0.792875  0.575027  0.034167
  0.106531  0.727240  0.357221
  0.370659  0.841329  0.542433
  0.923465  0.201493  0.398092
  0.639323  0.306505  0.532897
  0.224998  0.233004  0.059600
  0.766996  0.775002  0.059600
  0.187310  0.766931  0.600346
  0.772712  0.156501  0.569011
EA340
 1.0000000000000000
     4.732824   -0.000000   -0.000000
     1.577608    4.462149    0.000000
     1.577608   -2.231075    3.864334
 H   O  
   8   4
Direct
  0.114507  0.315845  0.331805
 -0.181801  0.665025  0.644749
  0.614507 -0.184155  0.331805
  0.318199  0.165025  0.644749
  0.614507  0.315845 -0.168195
  0.318199  0.665025  0.144749
  0.114507 -0.184155 -0.168195
 -0.181801  0.165025  0.144749
  0.067294  0.519130  0.523446
  0.567294  0.019130  0.523446
  0.567294  0.519130  0.023446
  0.067294  0.019130  0.023446
EA341
 1.0000000000000000
     4.732824    0.000000    0.000000
     1.577608    4.462149    0.000000
     1.577608   -2.231075    3.864334
 H   O  
   8   4
Direct
  0.044378 -0.183478 -0.018237
 -0.065721  0.139403 -0.053273
  0.044378  0.316522  0.481763
 -0.065721  0.639403  0.446727
  0.544378  0.816522  0.481763
  0.434279  1.139403  0.446727
  0.544378  0.316522  0.981763
  0.434279  0.639403  0.946727
  0.021343  0.044075  0.071510
  0.021343  0.544075  0.571510
  0.521343  1.044075  0.571510
  0.521343  0.544075  1.071510
EA342
 1.0000000000000000
     5.183746    0.000000    0.000000
     0.000000    5.183746    0.000000
     0.000000    0.000000    3.037048
 H   O  
   8   4
Direct
  0.302492  0.348606  0.926294
  0.213405  0.214784  0.505217
  0.802492  0.848606  0.926294
  0.713405  0.714784  0.505217
  0.302492  0.848606  0.426294
  0.213405  0.714784  0.005217
  0.802492  0.348606  0.426294
  0.713405  0.214784  0.005217
  0.234103  0.186610  0.818489
  0.734103  0.686610  0.818489
  0.234103  0.686610  0.318489
  0.734103  0.186610  0.318489
EA343
 1.0000000000000000
     4.594000   -0.000000    0.000000
     0.036161    4.593858   -0.000000
    -0.030446   -0.030208    3.867762
 H   O  
   8   4
Direct
  0.770726  0.786548  0.641290
  0.945547  0.505246  0.722496
  0.759065  0.285534  0.121210
  0.759513 -0.043390  0.184245
  0.493516  0.703556  0.086109
  0.346100  0.874358  0.382240
  0.401736  0.196025  0.607839
  0.225308  0.320906  0.912631
  0.773498  0.616841  0.790029
  0.762148  0.142691  0.305031
  0.327185  0.700589  0.239587
  0.251383  0.146718  0.772342
EA344
 1.0000000000000000
     4.594000   -0.000000    0.000000
     0.036161    4.593858   -0.000000
    -0.030446   -0.030208    3.867762
 H   O  
   8   4
Direct
  0.787805  0.827327  0.571967
  0.912541  0.542210  0.727220
  0.763628  0.353355  0.121904
  0.764536  0.024475  0.052405
  0.368589  0.643030  0.147417
  0.192245  0.779541  0.445698
  0.430603  0.162105  0.606725
  0.305344  0.329027  0.919584
  0.754267  0.683500  0.750151
  0.757902  0.167161  0.238796
  0.197362  0.613828  0.288455
  0.251040  0.198733  0.731606
EA345
 1.0000000000000000
     4.446000    0.000000   -0.000000
    -0.000466    4.446000    0.000000
     0.008790   -0.015561    4.127961
 H   O  
   8   4
Direct
  1.000352  0.418810  0.699078
  0.894500  0.091485  0.643168
  0.522564  0.055241  1.013521
  0.520493  0.374934  0.878446
  0.718767  0.774678  0.473260
  0.376406  0.783320  0.435801
  0.200223  0.714125  0.995103
 -0.122482  0.815126  0.926153
  1.028895  0.245134  0.558139
  0.519912  0.264528  1.081343
  0.533328  0.748207  0.595397
  0.006138  0.743447  1.099851
EA346
 1.0000000000000000
     4.446000    0.000000   -0.000000
    -0.000466    4.446000    0.000000
     0.008790   -0.015561    4.127961
 H   O  
   8   4
Direct
  1.008916  0.364162  0.811110
  0.831516  0.158011  0.577263
  0.519865  0.174511  0.897611
  0.524298  0.496365  1.029187
  0.672565  0.740307  0.441939
  0.330494  0.757923  0.480496
  0.169198  0.807236  0.909729
 -0.153922  0.711788  0.986780
  1.024085  0.259144  0.604440
  0.520976  0.287780  1.099110
  0.517028  0.812082  0.589218
  0.038398  0.753263  1.089602
EA347
 1.0000000000000000
     4.415000    0.000000    0.000000
     0.059717    4.414596    0.000000
    -0.056660   -0.055899    4.188244
 H   O  
   8   4
Direct
  0.916929  0.862516  0.559988
  0.800390  1.157392  0.723182
  0.959892  0.270090  0.170804
  0.945862  0.603577  0.077633
  0.509556 -0.154945  0.419842
  0.328290 -0.033840  0.129957
  0.513572  0.347850  0.912470
  0.347270  0.474280  0.614713
  0.939373  0.986472  0.752349
  0.996424  0.472516  0.255586
  0.510172  0.000674  0.257376
  0.508315  0.518973  0.768148
EA348
 1.0000000000000000
     4.420000    0.000000   -0.000000
     0.000231    4.420000    0.000000
     0.021069   -0.040899    4.176747
 H   O  
   8   4
Direct
  0.221813  0.433800  1.019777
 -0.091416  0.433420  1.176766
  0.917151  0.933058  1.129684
  0.588239  0.933722  1.017060
  0.719666  0.435056  0.485271
  0.501281  0.435511  0.770769
  0.413260  0.929299  0.653507
  0.093227  0.934621  0.515637
  0.007264  0.433670  0.968033
  0.795110  0.933770  0.936290
  0.504764  0.435144  0.537818
  0.305056  0.932309  0.451111
EA349
 1.0000000000000000
     4.515530    0.000000    0.000000
     0.039858    4.515354    0.000000
    -0.033110   -0.039356    4.003215
 H   O  
   8   4
Direct
  0.126290 -0.028071  0.447991
  0.037652  0.285428  0.333782
  0.560756  0.526128  0.154953
  0.607966  0.520612  0.538547
  0.138190  0.465774  0.957589
  0.042965  0.774847  0.834248
  0.549994  0.053069  0.632003
  0.433176 -0.043210  0.972072
 -0.039727  0.110254  0.439781
  0.494320  0.617903  0.362275
 -0.026275  0.605957  0.958890
  0.493297  0.130542  0.849671
EA350
 1.0000000000000000
     4.573395    0.000000   -0.000000
     0.032007    4.573284   -0.000000
    -0.025933   -0.029773    3.902735
 H   O  
   8   4
Direct
  0.686768  0.238423  0.453553
  0.954710  0.201247  0.691317
  0.384503  0.306845  0.001379
  0.186888  0.033103 -0.000639
  0.051801  0.545356  0.596066
  0.279901  0.786977  0.537548
  0.656535  0.829628  0.067814
  0.657511  0.566670  0.314560
  0.743813  0.226973  0.693334
  0.322062  0.144760  0.142511
  0.070556  0.752295  0.546134
  0.606593  0.623517  0.081889
EA351
 1.0000000000000000
     4.418213    0.000000   -0.000000
     0.020441    4.418165    0.000000
    -0.005269   -0.046214    4.180730
 H   O  
   8   4
Direct
  0.259275  0.402931  0.793622
  0.295880  0.194344  0.501874
  0.260192  0.906799  0.288736
  0.298565  0.692206  0.001713
  0.816998  0.739239  0.678060
  0.844561  1.088181  0.690292
  0.891078  0.260242  0.075684
  0.830132  0.553349  0.262785
  0.251641  0.403522  0.560875
  0.253105  0.902252  0.055977
  0.710601  0.924816  0.623285
  0.802427  0.460613  0.053057
EA352
 1.0000000000000000
     4.446000    0.000000    0.000000
    -0.000466    4.446000   -0.000000
     0.008790   -0.015561    4.127961
 H   O  
   8   4
Direct
  0.180676  0.340284  0.137015
 -0.107773  0.526803  0.112496
  0.077183  0.824138  0.740619
  0.203028  0.985831  1.038949
  0.491857  0.907936  0.295548
  0.573538  0.992172 -0.052421
  0.677983  0.347153  0.652945
  0.391207  0.535380  0.622609
  0.097522  0.536168  0.192910
  0.179331  1.008241  0.805869
  0.598001  1.059101  0.170502
  0.604922  0.552861  0.670068
EA353
 1.0000000000000000
     4.416294    0.000000    0.000000
     0.019619    4.416250    0.000000
    -0.007122   -0.040453    4.184157
 H   O  
   8   4
Direct
  0.351891  0.972118  0.558974
  0.027286  0.873834  0.647722
  0.857645  0.982682  0.076887
  0.525687  0.891595  0.138672
  0.860102  0.477690  0.566879
  0.529545  0.384926  0.636433
  0.294536  0.595573  0.241180
  0.279126  0.265909  0.112624
  0.225146  0.917920  0.739309
  0.720553  0.916689  0.243885
  0.722961  0.425874  0.739723
  0.194673  0.402218  0.273671
EA354
 1.0000000000000000
     4.417078    0.000000    0.000000
     0.014848    4.417053   -0.000000
    -0.000240   -0.040480    4.182575
 H   O  
   8   4
Direct
  1.090829  0.635313  0.508056
  0.946170  0.896144  0.704384
  0.592158  0.636679  0.010381
  0.445946  0.896731  0.206405
  0.481693  0.324446  0.619735
  0.344382  0.195080  0.929677
  0.995299  0.333434  0.127459
  0.833876  0.214578  0.428637
  0.912377  0.764409  0.520262
  0.413290  0.765186  0.021946
  0.536052  0.237546  0.824757
  1.032515  0.236153  0.331511
EA355
 1.0000000000000000
     4.417592    0.000000    0.000000
     0.027712    4.417505    0.000000
    -0.014763   -0.048072    4.182144
 H   O  
   8   4
Direct
  0.198162  0.641430  0.442362
  0.372699  0.535976  0.737920
  0.697494  0.141520  0.444620
  0.873492  0.037991  0.740051
  0.195123  0.143516 -0.050977
  0.372980  0.032725  0.239759
  0.697474  0.640968 -0.057430
  0.872937  0.535841  0.237669
  0.350595  0.495219  0.509937
  0.851228 -0.003400  0.512196
  0.348286 -0.004075  0.011382
  0.850550  0.495222  0.009688
EA356
 1.0000000000000000
     4.426210    0.000000    0.000000
     0.054747    4.425871    0.000000
    -0.050978   -0.051992    4.165137
 H   O  
   8   4
Direct
  0.634434  0.032687  0.149560
  0.942455  0.068334  0.326246
  0.647878  0.525033  0.654354
  0.955083  0.558417  0.832851
  0.232519  0.266860  0.619551
  0.452934  0.005290  0.539745
  0.241788  0.758894  0.127787
  0.470860  0.504775  0.047345
  0.841974 -0.043144  0.153245
  0.854649  0.447572  0.658957
  0.402917  0.152263  0.706203
  0.406387  0.639713  0.219541
EA357
 1.0000000000000000
     4.443795    0.000000    0.000000
    -0.000485    4.443795    0.000000
     0.009137   -0.016167    4.132192
 H   O  
   8   4
Direct
  0.921614  0.321467  0.297587
  0.648441  0.474625  0.460802
  0.651266  0.967267  0.957525
  0.932667  0.826474  0.796754
  0.260233  0.571204  1.047960
  0.282511  0.284336  0.836217
  0.233411  0.725823  0.515125
  0.341132  0.938646  0.243993
  0.837365  0.517394  0.351056
  0.839305  1.018425  0.850089
  0.383057  0.393132  1.009782
  0.347010  0.909031  0.476906
EA358
 1.0000000000000000
     4.492589    0.000000   -0.000000
     0.011068    4.492575   -0.000000
    -0.004411   -0.020572    4.043263
 H   O  
   8   4
Direct
  0.402169  0.149512  1.070231
  0.389114  0.215255  0.696692
  0.393792  0.656829  0.560911
  0.375019  0.712867  0.185908
  0.786964  0.752821  0.767276
  0.986882  0.494765  0.877478
  0.905185  0.284761  0.321050
  0.933410 -0.052752  0.391501
  0.522401  0.148815  0.870643
  0.514208  0.664918  0.361574
  0.861425  0.559819  0.695832
  0.983251  0.099637  0.230063
EA359
 1.0000000000000000
     4.415174    0.000000   -0.000000
     0.057480    4.414799   -0.000000
    -0.053726   -0.055370    4.187824
 H   O  
   8   4
Direct
  0.603068  0.488295  1.115201
  0.882041  0.446038  0.900232
  0.298836  0.655992  0.525368
  0.227565  0.391373  0.291543
  0.185903  0.945376 -0.140035
  0.039972  1.019216  0.181270
  0.688352  0.942162  0.358758
  0.542409  1.024496  0.678344
  0.672575  0.515705  0.897946
  0.132352  0.543071  0.429722
  0.149552  0.858883  0.068422
  0.650490  0.860762  0.569259
EA360
 1.0000000000000000
     4.433096    0.000000   -0.000000
     0.024398    4.433029   -0.000000
    -0.017907   -0.032229    4.152795
 H   O  
   8   4
Direct
  0.291163  0.174367  0.442578
  0.544122  0.088927  0.676500
  0.675541  0.479689  0.663545
  0.940967  0.703047  0.679797
  0.297685  0.643663 -0.061236
  0.413402  0.644415  0.290817
  0.671804 -0.023543  0.159681
  0.943300  0.193718  0.168650
  0.327609  0.071442  0.644951
  0.893840  0.489635  0.687545
  0.300329  0.524692  0.134560
  0.891350 -0.019118  0.166190
EA361
 1.0000000000000000
     4.408040    0.000000    0.000000
     0.051238    4.407742    0.000000
    -0.040998   -0.063396    4.201242
 H   O  
   8   4
Direct
  0.652086 -0.029298  1.065671
  0.431800  0.151152  0.848226
  0.676784  0.487311  0.566176
  0.446995  0.642082  0.336740
 -0.026494  0.487689  1.100589
  0.135813  0.627495  0.813663
  0.027061  0.904411  0.567546
 -0.005783  1.088467  0.263510
  0.508629 -0.052861  0.889753
  0.544049  0.448015  0.383518
  0.030317  0.446789  0.880869
  0.086649  0.903815  0.345186
EA362
 1.0000000000000000
     4.417448    0.000000    0.000000
     0.051580    4.417147   -0.000000
    -0.046472   -0.052870    4.183719
 H   O  
   8   4
Direct
  0.216650  0.082702  0.916216
  0.079570  0.388410  1.015866
  0.126924  0.602958  0.394019
  0.071281  0.836161  0.666749
  0.512395  0.719936  1.002145
  0.696453  0.429329  0.921618
  0.510945  0.205637  0.518455
  0.694797 -0.075936  0.409040
  0.266395  0.270573  1.027141
  0.212933  0.780599  0.498565
  0.657644  0.635359  0.851326
  0.648405  0.132708  0.353607
EA363
 1.0000000000000000
     4.428519    0.000000    0.000000
     0.001855    4.428519   -0.000000
     0.016247   -0.036142    4.162745
 H   O  
   8   4
Direct
  0.393361  0.935540  0.926671
  0.267578  0.745856  0.642141
  0.904026  0.941227  0.420099
  0.774889  0.739572  0.148753
  0.453998  0.444105  0.337288
  0.134005  0.362510  0.456306
  0.900370  0.326867  0.785645
  0.653195  0.430377  1.017266
  0.256995  0.770381  0.874262
  0.761215  0.778803  0.378554
  0.240858  0.481224  0.296463
  0.684576  0.367393  0.795544
EA364
 1.0000000000000000
     4.427366    0.000000    0.000000
     0.000033    4.427366    0.000000
     0.017543   -0.033623    4.162838
 H   O  
   8   4
Direct
  0.367707  0.213443  0.899280
  0.531727  0.019514  1.146256
  0.368150  0.712430  0.396874
  0.530710  0.517650  0.644130
  0.868633  0.214880  0.402719
  1.027901  0.014304  0.646651
  0.868733  0.712487  0.896453
  1.030610  0.518062  1.144514
  0.411052  0.004022  0.952004
  0.410373  0.502818  0.449597
  0.908127  0.003848  0.451468
  0.910386  0.502943  0.949925
EA365
 1.0000000000000000
     4.419175    0.000000    0.000000
     0.004503    4.419173   -0.000000
     0.014870   -0.040822    4.178387
 H   O  
   8   4
Direct
  0.422110  0.651963  0.616515
  0.439048  0.364233  0.402505
  0.936380 -0.022845  0.578709
  0.832102  0.089909  0.248120
  0.942121  0.472232  1.069697
  0.830405  0.584465  0.741098
  0.447843 -0.032770  1.065360
  0.317498  0.075739  0.743171
  0.328649  0.553018  0.432679
  0.756875  0.029417  0.456840
  0.761554  0.537307  0.956464
  0.260454  0.026418  0.961699
EA366
 1.0000000000000000
     4.420000    0.000000    0.000000
    -0.000429    4.420000    0.000000
     0.021956   -0.040797    4.176743
 H   O  
   8   4
Direct
  0.911028  0.799113  0.981894
  0.716326  1.024431  0.798421
  0.912238  0.300543  0.483687
  0.716236  0.525638  0.301376
  0.344110  0.239265 -0.135360
  0.295004  0.003775  0.130706
  0.347209  0.739893  0.368536
  0.296750  0.501600  0.631451
  0.834264  0.840327  0.768658
  0.834397  0.341771  0.270852
  0.199924  0.174937  0.026841
  0.201458  0.672762  0.527792
EA367
 1.0000000000000000
     4.415167    0.000000    0.000000
     0.057570    4.414791    0.000000
    -0.053843   -0.055392    4.187841
 H   O  
   8   4
Direct
  0.709025  0.182405  0.137894
  0.815960  0.362879 -0.152651
  0.712608  0.695912  0.656326
  0.820026  0.866661  0.360256
  0.207704  0.234177  0.157444
  0.022013  0.160839  0.451886
  0.202074  0.734476  0.659643
  0.023079  0.659372  0.957818
  0.674505  0.370495  0.023402
  0.670749  0.874520  0.528428
  0.229673  0.168991  0.377764
  0.229171  0.669700  0.879578
EA368
 1.0000000000000000
     4.421781    0.000000    0.000000
    -0.001181    4.421781    0.000000
     0.022044   -0.038921    4.173369
 H   O  
   8   4
Direct
  0.147620  0.273553  0.219828
 -0.128712  0.145000  0.039222
  0.647018  0.772688  0.218890
  0.371614  0.643921  0.036688
  0.646823  0.272424  0.718679
  0.371146  0.144332  0.536412
  0.151466  0.770586  0.720118
 -0.127383  0.644750  0.541849
  0.002258  0.108563  0.221265
  0.501677  0.607625  0.219541
  0.501179  0.107630  0.719194
  0.003462  0.608058  0.723937
EA369
 1.0000000000000000
     4.580336    0.000000   -0.000000
     0.032782    4.580219   -0.000000
    -0.027142   -0.029005    3.890729
 H   O  
   8   4
Direct
  0.617474  0.476418  0.178446
  0.338788  0.659555  0.238231
  0.628050 -0.029778  0.690114
  0.350031  0.157374  0.737748
  0.832289  0.577319  0.748591
  1.103935  0.758934  0.830427
  1.000090  0.187633  0.266030
  1.037580  0.026217  0.606183
  0.413784  0.493461  0.109177
  0.422630 -0.019194  0.627164
  1.043036  0.577852  0.720111
  0.944087  0.197204  0.506366
EA370
 1.0000000000000000
     4.334114   -0.000000    0.000000
     0.000000    3.753327   -0.000000
     1.895672   -0.000000    5.016749
 H   O  
   8   4
Direct
  0.187822  0.461026  0.238463
  0.564206  0.469881  0.133377
  0.812178  0.538974  0.761537
  0.435794  0.530119  0.866623
  0.312178 -0.038974  0.761537
 -0.064206 -0.030119  0.866623
  0.687822  0.038974  0.238463
  1.064206  0.030119  0.133377
  0.372972  0.569094  0.271030
  0.627028  0.430906  0.728970
  0.127028  0.069094  0.728970
  0.872972 -0.069094  0.271030
EA371
 1.0000000000000000
     5.159572   -0.000000   -0.000000
     0.000000    5.159572   -0.000000
     0.000000    0.000000    3.065574
 H   O  
   8   4
Direct
 -0.066220 -0.029026  0.226662
  0.118280 -0.012574 -0.161573
  0.470974  0.433780  0.273338
  0.487426  0.618280  0.661573
  0.001615  0.519693 -0.005104
 -0.047075  0.541318  0.484672
  0.628025 -0.081928  0.722780
  0.422789  0.115835  0.856245
 -0.052060  0.041600 -0.065089
  0.541600  0.447940  0.565089
  0.045460  0.438989  0.270433
  0.449186 -0.033907  0.670974
EA372
 1.0000000000000000
     4.337569   -0.000000   -0.000000
     0.000000    4.337569   -0.000000
     0.000000    0.000000    4.337569
 H   O  
   8   4
Direct
  0.656102  0.590562  0.022122
  0.394713  0.355138  0.031440
  0.022122  0.409438  0.343898
  0.031440  0.644862  0.605287
  0.343898  0.090562  0.477878
  0.605287 -0.144862  0.468560
 -0.172447 -0.056219  0.012653
  0.178641 -0.033429  0.005359
  0.449185  0.554299 -0.053562
 -0.053562  0.445701  0.550815
  0.550815  0.054299  0.553562
 -0.006193  0.089648 -0.018012
EA373
 1.0000000000000000
     4.515746   -0.000000    0.000000
    -2.257873    3.910750   -0.000000
     0.000000    0.000000    4.621145
 H   O  
   8   4
Direct
  0.470398  0.809529  0.846782
  0.178608  0.601383  1.057558
  0.803731  0.476195 -0.050699
  0.511941  0.268050  0.160077
  0.137064  0.142862 -0.101959
 -0.154726 -0.065283  0.108817
  0.137064  0.142862  0.398041
 -0.154726 -0.065283  0.608817
  0.350995  0.589088  0.941882
  0.684328  0.255755  0.044401
  0.017661 -0.077579 -0.006859
  0.017661 -0.077579  0.493141
EA374
 1.0000000000000000
     5.651742    0.000000    0.000000
     0.000000    4.146553   -0.000000
     0.000000    0.000000    3.482327
 H   O  
   8   4
Direct
  0.198885  0.835687 -0.096394
  0.333065  1.145830 -0.005158
  0.698885  0.349560  0.403606
  0.833065  0.659703  0.494842
  0.698885 -0.150440 -0.096394
  0.833065  0.159703 -0.005158
  0.198885  0.335687  0.403606
  0.333065  0.645830  0.494842
  0.218050  0.997673  0.101553
  0.718050  0.511547  0.601553
  0.718050  0.011547  0.101553
  0.218050  0.497673  0.601553
EA375
 1.0000000000000000
     5.547206    0.000000    0.000000
     1.136776    3.752309   -0.000000
     0.000000    0.000000    3.920724
 H   O  
   8   4
Direct
  0.943219  0.084124  0.792664
  0.983177  0.443345  0.705749
 -0.056781  0.597697  0.279092
 -0.016823  0.956918  0.192176
  0.443219  0.597697  0.779092
  0.483177  0.956918  0.692176
  0.443219  0.084124  0.292664
  0.483177  0.443345  0.205749
  1.073604  0.202171  0.771946
  0.073604  0.715744  0.258373
  0.573604  0.715744  0.758373
  0.573604  0.202171  0.271946
EA376
 1.0000000000000000
     4.420000    0.000000    0.000000
    -0.000463    4.420000   -0.000000
     0.021944   -0.040822    4.176743
 H   O  
   8   4
Direct
  0.866809  0.807146  0.999582
  0.740811  0.874882  0.663922
  0.904636  0.280641  0.472809
  0.738510  0.441128  0.198159
  0.372398  0.308675 -0.270368
  0.252294  0.151049  0.032819
  0.408385  0.780682  0.178472
  0.285268  0.661552  0.499951
  0.703027  0.755424  0.854532
  0.718645  0.276274  0.349702
  0.193904  0.290128 -0.135199
  0.243984  0.806486  0.331708
EA377
 1.0000000000000000
     4.420000    0.000000    0.000000
    -0.000463    4.420000   -0.000000
     0.021944   -0.040822    4.176743
 H   O  
   8   4
Direct
  0.967722  0.804212  0.999537
  0.771702  0.982883  0.762154
  0.910000  0.315344  0.539962
  0.779911  0.431440  0.221638
  0.435705  0.247058 -0.338900
  0.259399  0.142144 -0.040092
  0.417980  0.780778  0.217827
  0.232034  0.633154  0.488351
  0.790784  0.786418  0.863335
  0.768311  0.263895  0.370770
  0.294572  0.317026 -0.175131
  0.246753  0.815518  0.360382
EA378
 1.0000000000000000
     4.594000   -0.000000    0.000000
     0.036161    4.593858   -0.000000
    -0.030446   -0.030208    3.867762
 H   O  
   8   4
Direct
  0.829377  0.835605  0.537860
  0.909233  0.548759  0.725426
  0.765440  0.396864  0.082495
  0.767168  0.077220 -0.034156
  0.359978  0.661552  0.112828
  0.187993  0.804263  0.410898
  0.443732  0.208555  0.564818
  0.320738  0.372614  0.880870
  0.762957  0.703408  0.715495
  0.765712  0.199756  0.171554
  0.191147  0.635168  0.258750
  0.265290  0.243015  0.692701
EA379
 1.0000000000000000
     4.446000    0.000000   -0.000000
    -0.000466    4.446000    0.000000
     0.008790   -0.015561    4.127961
 H   O  
   8   4
Direct
  0.987427  0.351731  0.815856
  0.841746  0.066321  0.669133
  0.515836  0.010290  1.075772
  0.518260  0.332303  0.947078
  0.713885  0.730318  0.531921
  0.371265  0.738726  0.495925
  0.182599  0.719683  1.011083
 -0.161306  0.719805  1.031032
  1.009393  0.204996  0.641955
  0.516088  0.218384  1.147683
  0.528869  0.704322  0.654946
  0.017520  0.702178  1.164888
EA380
 1.0000000000000000
     4.446000    0.000000   -0.000000
    -0.000466    4.446000    0.000000
     0.008790   -0.015561    4.127961
 H   O  
   8   4
Direct
  1.027596  0.375700  0.799109
  0.864480  0.091473  0.672538
  0.517505  0.130278  0.957360
  0.517177  0.454369  1.082563
  0.670092  0.697269  0.506556
  0.327729  0.714513  0.543406
  0.200434  0.720682  1.014306
 -0.143501  0.722555  0.996684
  1.036494  0.221569  0.631417
  0.516032  0.246987  1.156531
  0.513780  0.769412  0.652689
  0.021695  0.704070  1.149365
EA381
 1.0000000000000000
     4.420000    0.000000   -0.000000
     0.000231    4.420000    0.000000
     0.021069   -0.040899    4.176747
 H   O  
   8   4
Direct
  0.281153  0.441452  1.004324
 -0.062002  0.436157  0.960292
  0.842929  0.935076  1.077334
  0.497191  0.930147  1.097766
  0.851909  0.431107  0.442039
  0.508502  0.440845  0.489726
  0.319284  0.922081  0.614093
 -0.026476  0.934869  0.603114
  0.126651  0.424779  0.839753
  0.663009  0.935320  0.943806
  0.663037  0.433937  0.323070
  0.151666  0.943657  0.465708
EA382
 1.0000000000000000
     4.420000    0.000000   -0.000000
     0.000231    4.420000    0.000000
     0.021069   -0.040899    4.176747
 H   O  
   8   4
Direct
  0.378322  0.418679  1.091187
  0.033600  0.424530  1.122854
  0.819431  0.930747  1.009608
  0.473793  0.937188  0.991356
  0.797870  0.436680  0.645671
  0.454416  0.426788  0.602106
  0.339148  0.936447  0.471923
 -0.006736  0.928733  0.487345
  0.195079  0.436315  0.964310
  0.653985  0.932319  0.856615
  0.642776  0.434948  0.480903
  0.161371  0.919176  0.336282
EA383
 1.0000000000000000
     4.419861    0.000000    0.000000
     0.048304    4.419597    0.000000
    -0.043652   -0.049067    4.178691
 H   O  
   8   4
Direct
  0.720397  0.433161  0.181887
  1.003148  0.620481  0.102474
  0.425855  0.105781  0.356127
  0.271396  0.272050  0.079275
  0.238003  0.554212  0.724181
  0.475725  0.803458  0.742174
  0.967610 -0.103294  0.765290
  0.861468  0.118487  0.502924
  0.810366  0.631592  0.212388
  0.427496  0.121432  0.124683
  0.425525  0.617767  0.626737
  1.036665  0.002326  0.576520
EA384
 1.0000000000000000
     4.419028    0.000000    0.000000
     0.004332    4.419027    0.000000
     0.015080   -0.040858    4.178716
 H   O  
   8   4
Direct
 -0.015748  0.294627  0.242357
  0.208355  0.066768  0.388745
  0.729255  0.644461  0.383199
  0.388288  0.601689  0.318049
  0.726664  0.143794  0.884123
  0.385912  0.102279  0.817508
 -0.007936  0.797960  0.738147
  0.207768  0.565265  0.889652
  0.002773  0.144114  0.409245
  0.582428  0.497864  0.305458
  0.579598 -0.002428  0.806204
  0.003838  0.647548  0.905904
EA385
 1.0000000000000000
     4.434371    0.000000    0.000000
     0.005682    4.434368    0.000000
     0.005223   -0.025450    4.149816
 H   O  
   8   4
Direct
  0.684603 -0.029863  0.698984
  0.683655  0.056463  0.339343
  0.204969  0.624835  0.707730
  0.394945  0.477863  0.437691
  0.704929  0.623474  0.207765
  0.894168  0.480597 -0.065309
  0.185948 -0.027645  0.199855
  0.184959  0.055446 -0.160609
  0.680613  0.142517  0.555487
  0.194082  0.553499  0.486069
  0.693933  0.557197 -0.015784
  0.181368  0.143438  0.054652
EA386
 1.0000000000000000
     4.428491   -0.000000    0.000000
     0.032094    4.428375    0.000000
    -0.026009   -0.037923    4.161779
 H   O  
   8   4
Direct
  0.486009  0.647708  0.700795
  0.528414  0.861453  0.418488
  0.470079  0.375317  0.185016
  0.552633  0.109245 -0.035812
  1.097372  0.604682  0.101939
  0.806023  0.544190 -0.083885
  0.912948 -0.056183  0.434267
  1.107300  0.202324  0.572567
  0.377390  0.738079  0.522215
  0.383606  0.238852  0.025303
  0.888425  0.671647  0.086368
  0.937755  0.073080  0.622606
EA387
 1.0000000000000000
     4.445122    0.000000    0.000000
    -0.000466    4.445122    0.000000
     0.009226   -0.016399    4.129595
 H   O  
   8   4
Direct
  0.487890  0.873015  0.535534
  0.769017  0.790415  0.729381
  0.634344  0.116836  0.770760
  0.397213  0.262588  0.995230
 -0.016001  0.886427  0.049937
  0.266357  0.802309  0.241052
  1.056290  0.393913  0.501287
  1.007485  0.231363  0.174550
  0.569311  0.717042  0.674757
  0.452192  0.237626  0.768432
  0.080642  0.717157  0.156133
  0.923180  0.253637  0.391097
EA388
 1.0000000000000000
     4.423431   -0.000000    0.000000
     0.007896    4.423424    0.000000
     0.008655   -0.038162    4.172069
 H   O  
   8   4
Direct
  0.540882  0.454908  0.127042
  0.592048  0.149061  0.292927
  0.039471  0.451857  0.625834
  0.093672  0.148281  0.795291
  0.357149  0.756963  0.793847
  0.021034  0.814050  0.875147
  0.850629  0.751015  0.290722
  0.519137  0.816295  0.385081
  0.435288  0.293244  0.236967
 -0.063959  0.292005  0.740629
  0.209745  0.741553  0.966232
  0.706538  0.731055  0.465803
EA389
 1.0000000000000000
     4.570546    0.000000    0.000000
     0.039245    4.570378    0.000000
    -0.033555   -0.033268    3.907611
 H   O  
   8   4
Direct
  0.348022  0.468998  0.200973
  0.269307  0.169059  0.043504
  0.281390  0.725724  0.725104
 -0.023174  0.748697  0.553055
  0.705145  0.309028  0.435510
  0.970254  0.281236  0.683217
  0.615404  0.770176  0.953241
  0.940363  0.825366  1.026501
  0.419412  0.318123  0.045329
  0.169368  0.836981  0.556898
  0.880953  0.193445  0.479957
  0.796094  0.670689  1.017350
EA390
 1.0000000000000000
     4.556497    0.000000    0.000000
     0.032684    4.556380    0.000000
    -0.026001   -0.032204    3.931296
 H   O  
   8   4
Direct
  0.166509  0.942786  0.483125
  0.236589  1.069757  0.838855
  0.155056  0.448459 -0.026104
  0.235985  0.574678  0.326629
  0.696082  0.553693  0.774069
  0.813131  0.288365  0.575165
  0.692761  1.051205  0.268802
  0.810339  0.780430  0.080395
  0.173029  0.892195  0.722652
  0.154422  0.402633  0.214933
  0.847716  0.496286  0.613605
  0.838696  0.991179  0.101937
EA391
 1.0000000000000000
     4.419947    0.000000    0.000000
     0.000760    4.419946    0.000000
     0.020381   -0.041042    4.176853
 H   O  
   8   4
Direct
  0.695450  0.694598  0.404647
  0.879781  0.410927  0.322652
  0.195505  0.694625  0.903942
  0.379596  0.410538  0.822965
  0.691958  0.192645  0.904573
  0.881164 -0.088844  0.828477
  0.196590  0.196629  0.406145
  0.379285 -0.088438  0.325335
  0.874951  0.583435  0.469108
  0.374585  0.583203  0.969209
  0.871993  0.084698  0.973303
  0.375065  0.084255  0.471577
EA392
 1.0000000000000000
     4.455285    0.000000    0.000000
     0.001833    4.455285   -0.000000
     0.006093   -0.016591    4.110867
 H   O  
   8   4
Direct
  0.590419  0.782739  0.184621
  0.288874  0.642461  0.294503
  0.832106  0.376338  0.338550
  1.027098  0.131617  0.177878
  0.845515  0.870562  0.843471
  1.052401  0.630679  0.690831
  0.496640  0.260080  0.593350
  0.292084  0.157193  0.871476
  0.500416  0.596389  0.259500
  0.957076  0.203552  0.387816
  0.962182  0.692819  0.895445
  0.386493  0.086837  0.672206
EA393
 1.0000000000000000
     4.434427    0.000000   -0.000000
     0.019222    4.434385   -0.000000
    -0.012080   -0.029173    4.150323
 H   O  
   8   4
Direct
  0.052523  0.547189  0.618581
  0.255788  0.514553  0.317775
  0.664643  1.161682  0.528109
  0.546291  0.834919  0.547484
  0.558635  0.322467  0.051642
  0.686288  0.645588  0.050543
  0.159192 -0.102228  0.910361
  0.005666  0.112585  1.149377
  0.047819  0.548089  0.383818
  0.626491  0.982416  0.397884
  0.635088  0.477613 -0.090684
  0.044705  0.085684  0.920761
EA394
 1.0000000000000000
     4.434536   -0.000000    0.000000
    -0.000465    4.434536    0.000000
     0.014529   -0.026582    4.149365
 H   O  
   8   4
Direct
  0.721796  0.287271  1.070169
  0.602062  0.079253  0.804672
 -0.045886  0.025848  0.576593
  0.232894  0.190825  0.714437
  0.022445  0.761067  0.928592
  0.304689  0.564028  0.954692
  0.528992  0.777647  0.441080
  0.809952  0.578433  0.465062
  0.602427  0.106243  1.037399
  0.059400  0.218383  0.574535
  0.108875  0.598425  1.054514
  0.601846  0.592861  0.539104
EA395
 1.0000000000000000
     4.420909    0.000000    0.000000
     0.010993    4.420896    0.000000
     0.004393   -0.038584    4.175693
 H   O  
   8   4
Direct
  0.590613  0.939759  0.545597
  0.844442  0.755230  0.378890
  0.088739  0.936412  1.044750
  0.352467  0.759813  0.886653
  0.091285  0.436857  0.546232
  0.354708  0.259492  0.388139
  0.591272  0.434996  1.045814
  0.854520  0.258210  0.886645
  0.808714  0.931773  0.514789
  0.307735  0.935085  1.021245
  0.310378  0.434835  0.522868
  0.810346  0.433027  1.022289
EA396
 1.0000000000000000
     4.567507    0.000000    0.000000
     0.033705    4.567383    0.000000
    -0.027330   -0.031610    3.912482
 H   O  
   8   4
Direct
  0.777559  0.424092  0.677344
  0.864456  0.102845  0.730249
  0.276315  0.748907  0.734992
  0.522903  0.977006  0.757294
  0.829501  0.917825  0.280991
  0.935066  0.626163  0.117006
  0.266154  0.255209  0.227285
  0.516619  0.479185  0.238336
  0.937324  0.286036  0.641116
  0.458534  0.793239  0.853404
  1.001347  0.793227  0.252740
  0.444314  0.305789  0.350895
EA397
 1.0000000000000000
     4.418871    0.000000    0.000000
     0.005162    4.418868    0.000000
     0.013822   -0.040737    4.178725
 H   O  
   8   4
Direct
  0.078945  0.273117  0.815803
  0.117001 -0.014833  1.017901
  0.078462  0.769892  0.312793
  0.111750  0.487012  0.523758
  0.471621  0.802916  0.235470
  0.672941  1.048674  0.381927
  0.467852  0.294683  0.732837
  0.669622  0.545315  0.868989
  0.120829  0.057509  0.798678
  0.118272  0.553624  0.302474
  0.655455  0.830278  0.359336
  0.647410  0.326339  0.863203
EA398
 1.0000000000000000
     4.419700    0.000000    0.000000
     0.017169    4.419666    0.000000
    -0.005151   -0.037307    4.176847
 H   O  
   8   4
Direct
  0.166478  0.778474  0.696686
 -0.095257  0.956654  0.847041
  0.669071  0.792256  0.203834
  0.408977  0.975842  0.350412
  0.170911  0.282219  0.203925
 -0.085986  0.469666  0.351003
  0.579755  0.255983  0.653281
  0.666204  0.476376  0.928073
  0.025428  0.942695  0.652833
  0.516637  0.942974  0.149753
  0.026859  0.441469  0.153335
  0.539531  0.457964  0.738288
EA399
 1.0000000000000000
     4.436381    0.000000    0.000000
     0.004619    4.436378    0.000000
     0.005844   -0.023730    4.146027
 H   O  
   8   4
Direct
  0.826978  0.069525  0.249640
  1.079383 -0.018307  0.488140
  0.625607  0.550189  0.026790
  0.509586  0.409372  0.339561
  0.703243  0.036389  0.752650
  0.413579 -0.063849  0.584122
  0.112749  0.538236  0.517706
 -0.000407  0.397969  0.831887
  1.029665 -0.013966  0.259567
  0.495217  0.591575  0.210679
  0.499082  0.102421  0.707249
  0.013287  0.589510  0.719987
EA400
 1.0000000000000000
     4.419184    0.000000    0.000000
     0.008360    4.419177    0.000000
     0.010487   -0.043075    4.178363
 H   O  
   8   4
Direct
  0.332466  0.416841  0.308023
  0.317143  0.528547  0.654442
  0.948862  0.057997  0.509858
  0.622215 -0.052870  0.537790
  1.007392  0.495570  0.092978
  0.695362  0.472559 -0.071394
  0.337769  0.912066  0.811521
  0.311405  1.031842  1.154209
  0.198182  0.422624  0.493212
  0.781680  0.044704  0.660658
  0.816208  0.602225  0.067503
  0.195721  0.926389  0.989687
EA401
 1.0000000000000000
     4.488516    0.000000    0.000000
     0.014466    4.488493    0.000000
    -0.001188   -0.035754    4.050591
 H   O  
   8   4
Direct
  0.408142  0.894419  0.115390
  0.101154  0.983877 -0.015726
  0.908219  0.893984  0.615377
  0.601430  0.984449  0.484566
  0.409084  0.396323  0.617131
  0.101340  0.484774  0.487246
  0.904427  0.395254  0.122166
  0.600194  0.483860 -0.016328
  0.292358  0.903784 -0.087570
  0.792500  0.904241  0.412441
  0.292483  0.405063  0.414657
  0.792462  0.403100 -0.083507
EA402
 1.0000000000000000
     4.586859    0.000000    0.000000
     0.034395    4.586731    0.000000
    -0.028727   -0.029583    3.879739
 H   O  
   8   4
Direct
  0.321506  0.105703  0.507413
  0.649243  0.099125  0.585003
  0.371748  0.422630  0.240811
  0.507511  0.726096  0.303555
  0.966799  0.770603  0.634364
  0.995078  0.477658  0.446478
  0.822266  0.125642  0.016851
  1.150212  0.116164  0.093149
  0.461692  0.056157  0.687400
  0.363580  0.623795  0.163217
  0.960840  0.561971  0.673415
  0.964745  0.044600  0.177265
EA403
 1.0000000000000000
     4.334114   -0.000000    0.000000
     0.000000    3.753327   -0.000000
     1.895672   -0.000000    5.016749
 H   O  
   8   4
Direct
  0.544537  0.602986  0.163897
  0.186306  0.486855  0.233666
  1.044537 -0.102986  0.163897
  0.686306  0.013145  0.233666
  0.582295  0.471208  0.655862
  0.734643  0.585951  0.859919
  0.082295  0.028792  0.655862
  0.234643 -0.085951  0.859919
  0.394157  0.410159  0.245307
  0.894157  0.089841  0.245307
  0.558061  0.442840  0.841349
  0.058061  0.057160  0.841349
EA404
 1.0000000000000000
     4.804571   -0.000000   -0.000000
     0.000000    4.804571   -0.000000
     0.000000    0.000000    3.535330
 H   O  
   8   4
Direct
  0.349123 -0.151873  0.669578
  0.359377  0.161301  0.740827
 -0.151873  0.349123  0.080422
  0.161301  0.359377  0.009173
  0.117618  0.727939  0.365545
 -0.131967  0.694037  0.628682
  0.727939  0.117618  0.384455
  0.694037 -0.131967  0.121318
  0.280600 -0.009429  0.839595
 -0.009429  0.280600 -0.089595
  0.014349  0.588924  0.505773
  0.588924  0.014349  0.244227
EA405
 1.0000000000000000
     2.880294   -0.000000   -0.000000
     0.000000    2.880294   -0.000000
     0.000000    0.000000    9.837067
 H   O  
   8   4
Direct
  0.721641  0.611172  0.414606
  0.230844  0.449753  0.380080
  0.388828  0.721641  0.585394
  0.550247  0.230844  0.619920
 -0.235627 -0.073011  0.845804
  0.154221  0.183672  0.919282
  0.073011 -0.235627  0.154196
 -0.183672  0.154221  0.080718
  0.547515  0.439075  0.347114
  0.560925  0.547515  0.652886
  0.081406 -0.110662  0.876714
  0.110662  0.081406  0.123286
EA406
 1.0000000000000000
     4.678067   -0.000000    0.000000
    -2.339034    4.051325   -0.000000
    -2.339034    1.350442    4.306015
 H   O  
   8   4
Direct
  0.248733  0.569104 -0.052972
  0.422047  0.758349  0.189736
  0.019196  0.798642  0.258417
  0.192510  0.987886  0.501125
  0.519196  0.298642  0.758417
  0.692510  0.487886  1.001125
  0.748733  0.069104  0.447028
  0.922047  0.258349  0.689736
  0.423526  0.578241  0.146152
  0.193989  0.807778  0.457541
  0.693989  0.307778  0.957541
  0.923526  0.078241  0.646152
EA407
 1.0000000000000000
     5.680248    0.000000    0.000000
     0.000000    5.680248    0.000000
     0.000000    0.000000    2.529325
 H   O  
   8   4
Direct
  0.893674  0.237456  0.389088
  0.712203  0.323995 -0.011325
  0.393674  0.110158  0.988515
  0.212203  0.196696  0.588102
  0.766376  0.737456  0.988515
  0.584904  0.823995  0.588102
  0.266376  0.610158  0.389088
  0.084904  0.696696 -0.011325
  0.835071  0.379497  0.223096
  0.335071  0.252198  0.822523
  0.707772  0.879497  0.822523
  0.207772  0.752198  0.223096
EA408
 1.0000000000000000
     4.510297    0.000000    0.000000
    -0.394663    4.492997   -0.000000
     0.000000    0.000000    4.027150
 H   O  
   8   4
Direct
  0.270629  0.685996  0.403734
  0.191703  0.357452  0.325340
  0.607224  0.349401  0.724756
  0.528298  0.020857  0.646362
  0.107224  0.849401  0.903734
  0.028298  0.520857  0.825340
  0.770629  0.185996  0.224756
  0.691703 -0.142548  0.146362
  0.124325  0.552993  0.289393
  0.460920  0.216398  0.610415
 -0.039080  0.716398  0.789393
  0.624325  0.052993  0.110415
EA409
 1.0000000000000000
     4.420000    0.000000   -0.000000
     0.000231    4.420000    0.000000
     0.021069   -0.040899    4.176747
 H   O  
   8   4
Direct
  0.329737  0.429457  1.053033
 -0.016033  0.437499  1.048518
  0.835561  0.930376  1.033295
  0.489494  0.937144  1.043541
  0.793013  0.333200  0.559195
  0.526001  0.552216  0.536049
  0.280916  0.815419  0.538136
  0.015663  1.037575  0.555479
  0.159162  0.434285  0.906569
  0.659343  0.933677  0.894441
  0.653321  0.419808  0.405572
  0.160343  0.948776  0.405458
EA410
 1.0000000000000000
     4.420000    0.000000   -0.000000
     0.000231    4.420000    0.000000
     0.021069   -0.040899    4.176747
 H   O  
   8   4
Direct
  0.325580  0.435701  1.049110
 -0.020179  0.431993  1.040635
  0.824850  0.935625  1.054155
  0.478787  0.930707  1.046159
  0.794483  0.538510  0.552943
  0.528153  0.317813  0.535544
  0.293879  1.053249  0.525487
  0.026279  0.835472  0.554922
  0.156425  0.433515  0.900677
  0.655350  0.934485  0.906175
  0.650793  0.450175  0.402811
  0.164485  0.921208  0.398085
EA411
 1.0000000000000000
     4.420000    0.000000   -0.000000
     0.000231    4.420000    0.000000
     0.021069   -0.040899    4.176747
 H   O  
   8   4
Direct
  0.282981  0.315992  1.035587
  0.016646  0.536389  1.052866
  0.785886  0.832638  1.067635
  0.519211  1.050689  1.034319
  0.831192  0.436013  0.544057
  0.484948  0.433917  0.547233
  0.338068  0.933652  0.532982
 -0.007970  0.933803  0.546436
  0.162066  0.448959  0.902789
  0.650479  0.917783  0.908959
  0.657458  0.435316  0.401604
  0.160652  0.934291  0.395783
EA412
 1.0000000000000000
     4.420000    0.000000   -0.000000
     0.000231    4.420000    0.000000
     0.021069   -0.040899    4.176747
 H   O  
   8   4
Direct
  0.288269  0.551423  1.041216
  0.019148  0.334753  1.058020
  0.799278  1.040891  1.040616
  0.531453  0.821619  1.032283
  0.830640  0.434411  0.547125
  0.484389  0.435517  0.548296
  0.322739  0.931674  0.554017
 -0.023267  0.935305  0.543855
  0.163859  0.420017  0.907586
  0.651700  0.952127  0.895146
  0.657663  0.435304  0.403664
  0.154141  0.934833  0.404977
EA413
 1.0000000000000000
     4.420000    0.000000   -0.000000
     0.000231    4.420000    0.000000
     0.021069   -0.040899    4.176747
 H   O  
   8   4
Direct
  0.321165  0.430839  1.046441
 -0.024543  0.434083  1.036081
  0.915779  0.933150  0.831673
  0.655195  0.933123  1.074281
  0.834672  0.435274  0.544442
  0.488471  0.435745  0.552668
  0.170584  0.935061  0.557384
 -0.056139  0.931890  0.281717
  0.152801  0.437162  0.897224
  0.695804  0.934628  0.845134
  0.659094  0.434256  0.404536
  0.160022  0.930218  0.324626
EA414
 1.0000000000000000
     4.556000   -0.000000    0.000000
     0.032681    4.555883   -0.000000
    -0.026009   -0.032206    3.931782
 H   O  
   8   4
Direct
  0.180631  0.837341  0.404710
  0.212501  1.062702  0.695830
  0.233280  0.364046 -0.021726
  0.385039  0.510781  0.285613
  0.753137  0.522448  0.796274
  0.904344  0.379199  0.487272
  0.688956  1.032280  0.369490
  0.705428  0.794874  0.089332
  0.317829  0.907504  0.576689
  0.394576  0.338837  0.138480
  0.913803  0.548609  0.638260
  0.814048  0.957155  0.188910
EA415
 1.0000000000000000
     4.556000   -0.000000    0.000000
     0.032681    4.555883   -0.000000
    -0.026009   -0.032206    3.931782
 H   O  
   8   4
Direct
  0.211801  1.021207  0.582645
  0.445327  1.013161  0.866812
  0.106539  0.507157 -0.003673
  0.272221  0.636648  0.304390
  0.586350  0.339191  0.784340
  0.751505  0.207706  0.478133
  0.706543  0.849325  0.194466
  0.945270  0.867591 -0.079585
  0.353762  0.892259  0.692153
  0.277851  0.476240  0.140415
  0.754965  0.370317  0.639224
  0.852776  0.980098  0.101607
EA416
 1.0000000000000000
     4.425393    0.000000    0.000000
     0.021808    4.425339    0.000000
    -0.010886   -0.038969    4.166603
 H   O  
   8   4
Direct
  0.192433  0.020097  0.964966
 -0.036944  0.236717  0.814341
  0.190765  0.523362  0.470680
 -0.039620  0.734657  0.314177
  0.442567  0.660348  0.880825
  0.772767  0.765064  0.917410
  0.497595  0.353841  0.365117
  0.701166  0.074655  0.417820
  0.052314  0.036965  0.785423
  0.051590  0.535299  0.289818
  0.590610  0.724879  1.039335
  0.588010  0.230567  0.532253
EA417
 1.0000000000000000
     4.425716    0.000000    0.000000
     0.005383    4.425712    0.000000
     0.009964   -0.033829    4.165821
 H   O  
   8   4
Direct
  0.718169  0.697230  0.674623
  0.448893  0.909211  0.727302
 -0.027700  0.877242 -0.053424
  0.196849  0.661242  0.111967
  0.024722  0.495948  0.685346
  0.044423  0.153972  0.719988
  0.530373  0.498091  0.191605
  0.543493  0.154885  0.215996
  0.517452  0.741553  0.592886
  0.174865  0.867337  0.035765
  0.168769  0.330215  0.676771
  0.671107  0.329769  0.177532
EA418
 1.0000000000000000
     4.423644    0.000000   -0.000000
     0.000133    4.423644    0.000000
     0.019320   -0.037290    4.169858
 H   O  
   8   4
Direct
  0.466784  0.792327  0.588896
  0.544904  0.899184  0.250496
 -0.034146  0.294267  0.591202
  0.045926  0.399684  0.252737
  0.463851  0.289258  1.089462
  0.544443  0.402680  0.754520
 -0.034005  0.792206  1.088605
  0.045164  0.899050  0.750458
  0.554929  0.961987  0.474413
  0.055594  0.463033  0.476515
  0.553256  0.461100  0.979769
  0.054963  0.961648  0.974451
EA419
 1.0000000000000000
     4.446705    0.000000    0.000000
     0.005701    4.446701   -0.000000
     0.012343   -0.038988    4.127000
 H   O  
   8   4
Direct
  0.483997  1.100265  0.889088
  0.307572  0.851181  1.057285
  0.489576  0.599811  0.386828
  0.306475  0.353606  0.552412
  0.990222  1.100138  0.387887
  0.806444  0.855479  0.555347
  0.989244  0.599312  0.886132
  0.806437  0.353482  1.052753
  0.511325  0.924997  1.025599
  0.511910  0.423486  0.522786
  1.012053  0.924772  0.525442
  1.011786  0.423516  1.022851
EA420
 1.0000000000000000
     4.459025   -0.000000    0.000000
     0.032531    4.458906   -0.000000
    -0.026595   -0.036195    4.104364
 H   O  
   8   4
Direct
  0.171375  0.917312  0.018522
  0.201727  0.609905  0.187222
  0.085768  0.049266  0.630049
  0.205353  0.371602  0.611472
  0.567398  0.172108  0.059022
  0.747183  0.370879  0.298525
  0.523220  0.713222  0.770438
  0.807350  0.824684  0.598460
  0.058881  0.769959  0.140143
  0.116395  0.229711  0.760286
  0.595297  0.379443  0.127678
  0.598481  0.875752  0.638707
EA421
 1.0000000000000000
     4.415647    0.000000    0.000000
    -0.001630    4.415647   -0.000000
     0.031171   -0.054996    4.185538
 H   O  
   8   4
Direct
  0.357008  0.974681  0.222707
  0.026722  1.079813  0.217391
  0.149788  0.452668  1.058295
  0.011697  0.492826  0.723199
  0.768193  0.709251  0.213540
  0.749668  0.392140  0.364763
  0.762122  0.207190  0.712060
  0.750594 -0.110620  0.862619
  0.151353  0.903464  0.259460
  0.196924  0.522946  0.844326
  0.694626  0.603369  0.401046
  0.693585  0.099856  0.900686
EA422
 1.0000000000000000
     4.440036    0.000000    0.000000
    -0.000465    4.440036    0.000000
     0.011764   -0.021272    4.139075
 H   O  
   8   4
Direct
  0.634443  0.586190  0.019289
  0.584997  0.306186  0.232278
  0.125943  0.387101  0.572155
  0.220530  0.707539  0.676944
  0.131066 -0.108913  0.065065
  0.221614  0.209486  0.180365
  0.637144  1.085839  0.518294
  0.587240  0.806863  0.732909
  0.716569  0.479394  0.203442
  0.092742  0.538993  0.738421
  0.094826  0.038325  0.235446
  0.719424  0.979438  0.702675
EA423
 1.0000000000000000
     4.421597    0.000000    0.000000
     0.000188    4.421597    0.000000
     0.020301   -0.039315    4.173726
 H   O  
   8   4
Direct
  0.231137  0.666452  0.556545
  0.453555  0.868659  0.739114
  0.730775  0.667010  0.056808
  0.953983  0.868519  0.239128
  0.231977  0.167795  0.057975
  0.453498  0.369808  0.242078
  0.730467  0.164684  0.563452
  0.952580  0.371458  0.739964
  0.323786  0.866120  0.551501
  0.824215  0.866294  0.051514
  0.324255  0.367707  0.054046
  0.820858  0.365222  0.553980
EA424
 1.0000000000000000
     4.428115    0.000000    0.000000
     0.008992    4.428106    0.000000
     0.003279   -0.030836    4.161649
 H   O  
   8   4
Direct
  0.700504  0.281229  0.445598
  0.787963  0.582411  0.293370
  0.187872  0.295892  0.948630
  0.279720  0.595917  0.796548
  0.636968  1.044961  0.771489
  0.863076  0.882128  0.993059
  0.138999  1.047022  0.270940
  0.362673  0.882105  0.493433
  0.746902  0.490028  0.500059
  0.271936  0.492747  1.002167
  0.847046  1.045518  0.839037
  0.348821  1.045602  0.339296
EA425
 1.0000000000000000
     4.438784   -0.000000    0.000000
    -0.000465    4.438784   -0.000000
     0.012391   -0.022477    4.141414
 H   O  
   8   4
Direct
  0.616875  0.841598  0.804455
  0.579288  0.964812  0.462887
  0.532023  0.243299  0.099721
  0.673980  0.543406  0.201715
  0.026106  0.126223  0.842256
  0.153157  0.025134  1.170851
  0.024098  0.625826  0.342229
  0.149516  0.525319  0.671622
  0.720850  0.856990  0.598716
  0.722330  0.352067  0.097836
  0.083703 -0.051518  0.963349
  0.081553  0.448325  0.463735
EA426
 1.0000000000000000
     4.426361    0.000000    0.000000
     0.025631    4.426287    0.000000
    -0.016524   -0.038597    4.164796
 H   O  
   8   4
Direct
  0.110347  0.258987  0.707029
  0.118618  0.261530  1.076569
  0.748406  0.752729  0.747918
  0.605908  0.985203  0.980943
  0.846234  1.056983  0.461184
  1.101785  0.857096  0.589781
  0.345707  0.557047  0.462935
  0.602462  0.359114  0.592365
  0.243791  0.224168  0.889033
  0.639977  0.769832  0.949568
  1.021034  0.939585  0.391218
  0.521642  0.440989  0.393532
EA427
 1.0000000000000000
     4.430810    0.000000    0.000000
     0.005040    4.430807   -0.000000
     0.008708   -0.030408    4.156845
 H   O  
   8   4
Direct
  0.788372  0.123001  0.534208
  1.076458 -0.018851  0.387559
  0.288245  0.123248  1.033714
  0.573515 -0.021510  0.883712
  0.254938  0.619387  0.307121
  0.533106  0.656495  0.521802
  0.754572  0.620655  0.807825
  1.033402  0.655260  1.022057
  1.005100  0.152529  0.514061
  0.504882  0.151073  1.010134
  0.473506  0.639021  0.297203
  0.973138  0.640402  0.797462
EA428
 1.0000000000000000
     4.554040    0.000000    0.000000
     0.029092    4.553947    0.000000
    -0.021850   -0.031214    3.935948
 H   O  
   8   4
Direct
  0.821358  0.319157  0.575664
  1.132368  0.433604  0.642733
  0.321507  0.329203  0.073138
  0.633390  0.442355  0.137388
  0.502021  0.973703  0.680956
  0.513334  0.765115  0.984094
  1.002674  0.973926  0.181203
  1.011724  0.766202  0.485263
  1.020412  0.308424  0.489095
  0.521805  0.309236 -0.007126
  0.418573  0.791850  0.764142
  0.919094  0.791952  0.263945
EA429
 1.0000000000000000
     4.476659    0.000000   -0.000000
     0.009281    4.476649   -0.000000
    -0.002264   -0.020263    4.072221
 H   O  
   8   4
Direct
  0.459690  0.174217  0.881370
  0.453837  0.519371  0.871433
  0.220448  0.803848  0.678869
 -0.041127  0.949796  0.861687
  0.102057  0.517577  0.153562
  0.069926  0.242727  0.372033
  0.717581  0.781657  0.185027
  0.456706  0.931340  0.365240
  0.588202  0.349027  0.890602
  0.003240  0.809376  0.684905
 -0.000742  0.327344  0.166652
  0.504115  0.819134  0.166875
EA430
 1.0000000000000000
     4.425528    0.000000    0.000000
     0.022346    4.425472   -0.000000
    -0.011680   -0.038917    4.166349
 H   O  
   8   4
Direct
  0.315612  0.014474  0.117949
  0.203744  0.057649  0.462601
  0.309861  0.514680  0.621072
  0.205319  0.556923  0.968113
  0.853162  0.984853  0.965911
  0.898304  0.730802  0.715485
  0.861159  0.264880  0.196108
  0.976953  0.572028  0.324796
  0.387328  0.024704  0.338888
  0.386437  0.524765  0.840198
  0.860087  0.946546  0.735944
  0.797909  0.471890  0.240517
EA431
 1.0000000000000000
     4.421011    0.000000    0.000000
     0.002354    4.421011    0.000000
     0.017452   -0.039930    4.175080
 H   O  
   8   4
Direct
  0.895234  0.234441  0.933899
  0.638872  0.188191  0.688618
  0.228793  0.921988  0.721859
  0.434210  0.675091  0.863554
  0.221455  0.417372  0.222426
  0.434427  0.177978  0.366293
  0.897852  0.735284  0.433295
  0.641175  0.687252  0.188575
  0.843512  0.123758  0.739571
  0.226113  0.716438  0.802543
  0.224942  0.212903  0.305879
  0.846391  0.624222  0.239087
EA432
 1.0000000000000000
     4.534624    0.000000    0.000000
     0.032579    4.534507    0.000000
    -0.026017   -0.033110    3.968839
 H   O  
   8   4
Direct
  0.205468  0.667824  0.146634
 -0.048545  0.483069  0.286659
  0.201144  0.170241  0.646726
 -0.048792 -0.018045  0.789739
  0.464605  0.958508  0.103084
  0.776146  0.966349  0.259087
  0.466149  0.458216  0.603548
  0.777994  0.467104  0.758448
  0.161335  0.475939  0.240166
  0.160628 -0.022348  0.740590
  0.568627  0.966242  0.317827
  0.570676  0.465928  0.817956
EA433
 1.0000000000000000
     4.430801    0.000000    0.000000
     0.022406    4.430745   -0.000000
    -0.014733   -0.032967    4.156177
 H   O  
   8   4
Direct
  1.091785  0.808515  0.115408
  0.854229  1.048141  0.213308
  0.552119  0.915814  0.996526
  0.542317  0.756465  0.666216
 -0.098701  0.460938  0.979463
  0.124996  0.488816  0.698052
  0.378246  0.448933  0.003476
  0.579275  0.415344  0.305555
  0.894079  0.832087  0.213696
  0.415106  0.857848  0.823902
  0.004784  0.343451  0.814927
  0.406137  0.327952  0.195808
EA434
 1.0000000000000000
     4.529507    0.000000   -0.000000
     0.024703    4.529440   -0.000000
    -0.018096   -0.028473    3.977713
 H   O  
   8   4
Direct
  0.787991  0.567609  0.533138
  0.750104  0.689550  0.178026
  0.607805  0.131945  0.903347
  0.940313  0.104033  0.841694
  0.163255  0.970720  0.100927
  0.378479  1.087966  0.370395
  0.165200  0.470176  0.600964
  0.379721  0.588708  0.870310
  0.753329  0.505510  0.302359
  0.754627  0.002063  0.801694
  0.249513  0.923197  0.318202
  0.251767  0.423148  0.818205
EA435
 1.0000000000000000
     4.517635    0.000000   -0.000000
     0.020229    4.517590   -0.000000
    -0.009379   -0.034101    3.999130
 H   O  
   8   4
Direct
  0.884684  0.864364  0.559694
  0.835254  1.059852  0.254225
  0.890290  0.364686  1.057261
  0.833537  0.558370  0.751481
  0.390560  0.866924  1.060476
  0.333714  1.058684  0.753109
  0.389788  0.364934  0.557527
  0.333644  0.557984  0.251082
  0.989718  0.992282  0.405747
  0.990896  0.493902  0.900978
  0.491207  0.994836  0.902784
  0.490795  0.493447  0.400820
EA436
 1.0000000000000000
     2.732497   -0.000000   -0.000000
     0.000000    5.464994   -0.000000
     0.000000    0.000000    5.464994
 H   O  
   8   4
Direct
 -0.225598  0.085242  0.471087
  0.171561 -0.067824  0.594166
  0.225598  0.585242  0.528913
 -0.171561  0.432176  0.405834
  0.119518 -0.107231  0.075869
 -0.005750  0.085938 -0.115897
  0.119518  0.607231  0.075869
 -0.005750  0.414062 -0.115897
  0.054037 -0.017417  0.434747
 -0.054037  0.482583  0.565253
 -0.113768  0.021292  0.040027
 -0.113768  0.478708  0.040027
EA437
 1.0000000000000000
     3.442688   -0.000000   -0.000000
     0.000000    3.442688   -0.000000
     0.000000    0.000000    6.885633
 H   O  
   8   4
Direct
  0.087343 -0.193485  0.855549
 -0.064010  0.128404  0.723209
  0.306515  0.587343  0.355549
  0.628404  0.435990  0.223209
  0.076781  0.203462  0.223508
  0.018783 -0.227994  0.181488
  0.703462  0.576781  0.723508
  0.272006  0.518783  0.681488
 -0.023333  0.065081  0.858742
  0.565081  0.476667  0.358742
 -0.095565  0.024532  0.157504
  0.524532  0.404435  0.657504
EA438
 1.0000000000000000
     5.642273   -0.000000   -0.000000
     0.000000    2.960114   -0.000000
     0.000000    0.000000    4.886260
 H   O  
   8   4
Direct
  0.545490  0.187045  0.348077
  0.785742  0.400138  0.285181
  0.898337  0.544189  0.887304
  0.724479  0.938753  0.875168
  0.255503  0.944183  0.575311
  0.432852  0.608005  0.694350
  0.258387  0.399030  0.058421
  0.079903  0.071298  0.183677
  0.712367  0.162818  0.392142
  0.833584  0.767058  0.762928
  0.268044  0.697813  0.704939
  0.205310  0.279673  0.232502
EA439
 1.0000000000000000
     4.868756    0.000000    0.000000
    -2.434378    4.216467    0.000000
     0.000000   -2.810978    3.975323
 H   O  
   8   4
Direct
  0.423489  0.778607  0.413025
  0.656076  1.218129  0.593619
  0.173489  0.278607  0.663025
  0.406076  0.718129  0.843619
  0.673489  0.278607  0.163025
  0.906076  0.718129  0.343619
 -0.076511 -0.221393 -0.086975
  0.156076  0.218129  0.093619
  0.420435  1.003264  0.493356
  0.170435  0.503264  0.743356
  0.670435  0.503264  0.243356
 -0.079565  0.003264 -0.006644
EA440
 1.0000000000000000
     3.765281    0.000000    0.000000
     0.000000    3.765281    0.000000
     0.000000    0.000000    5.756311
 H   O  
   8   4
Direct
  1.086495  0.499820  0.632941
  0.837194  0.464753  0.425102
  0.586495 -0.000180  0.632941
  0.337194 -0.035247  0.425102
  0.586495 -0.000180  0.132941
  0.337194 -0.035247 -0.074898
  0.086495  0.499820  0.132941
 -0.162806  0.464753 -0.074898
  1.076311  0.535427  0.466439
  0.576311  0.035427  0.466439
  0.576311  0.035427 -0.033561
  0.076311  0.535427 -0.033561
EA441
 1.0000000000000000
     5.693923    0.000000    0.000000
    -2.846962    4.931082   -0.000000
     0.000000    0.000000    2.906600
 H   O  
   8   4
Direct
 -0.114800 -0.103549  0.665885
  0.153887  0.085161  0.427855
  0.385200 -0.103549  0.165885
  0.653887  0.085161 -0.072145
  0.385200  0.396451  0.165885
  0.653887  0.585161 -0.072145
 -0.114800  0.396451  0.165885
  0.153887  0.585161 -0.072145
 -0.039087  0.018388  0.406260
  0.460913  0.018388 -0.093740
  0.460913  0.518388 -0.093740
 -0.039087  0.518388 -0.093740
EA442
 1.0000000000000000
     4.416000    0.000000   -0.000000
    -0.001619    4.416000    0.000000
     0.031196   -0.055001    4.185522
 H   O  
   8   4
Direct
  0.376958  0.955803  0.135793
  0.032159  0.982844  0.154064
  0.140379  0.298346  0.977803
  0.025780  0.473644  0.685336
  0.703256  0.615363  0.116373
  0.708397  0.285679  0.224019
  0.694530  0.184049  0.733620
  0.701519 -0.145194  0.615409
  0.209611  0.962090  0.287679
  0.184821  0.472216  0.844888
  0.687753  0.491545  0.306683
  0.697148 -0.023147  0.810391
EA443
 1.0000000000000000
     4.416000    0.000000   -0.000000
    -0.001619    4.416000    0.000000
     0.031196   -0.055001    4.185522
 H   O  
   8   4
Direct
  0.356834  0.982414  0.287229
  0.011604  0.965960  0.269205
  0.228690  0.332936  1.030446
  0.059083  0.455045  0.737331
  0.713747  0.629849  0.348512
  0.694003  0.300696  0.231895
  0.698049  0.097650  0.741198
  0.698384 -0.232349  0.847990
  0.175517  0.998842  0.419138
  0.233661  0.492721  0.872577
  0.728165  0.422503  0.423507
  0.699589 -0.026072  0.932054
EA444
 1.0000000000000000
     4.428000    0.000000    0.000000
     0.008965    4.427991    0.000000
     0.003269   -0.030806    4.161885
 H   O  
   8   4
Direct
  0.660426  0.326150  0.499830
  0.948838  0.409638  0.309716
  0.197734  0.261801  0.961104
  0.316100  0.556882  0.808743
  0.737602  0.956715  0.810836
  0.880296  0.805440  1.107193
  0.277383  0.870815  0.268597
  0.562229  0.736303  0.428293
  0.836084  0.458188  0.504093
  0.353950  0.414829  0.981765
  0.910179  0.968287  0.954799
  0.400142  0.881498  0.462265
EA445
 1.0000000000000000
     4.428000    0.000000    0.000000
     0.008965    4.427991    0.000000
     0.003269   -0.030806    4.161885
 H   O  
   8   4
Direct
  0.782107  0.243512  0.401559
  1.058644  0.431714  0.295262
  0.209335  0.333964  0.905443
  0.374529  0.627096  0.807100
  0.697229  0.928140  0.803036
  0.830674  0.768633  1.099324
  0.188334  1.008753  0.329968
  0.466855  0.828079  0.444673
  0.865570  0.446867  0.405949
  0.378977  0.463101  0.961733
  0.865711  0.935093  0.952691
  0.359051  1.017372  0.476956
EA446
 1.0000000000000000
     4.425000   -0.000000    0.000000
     0.021779    4.424946   -0.000000
    -0.010909   -0.039001    4.166803
 H   O  
   8   4
Direct
  0.210362 -0.003565  0.967975
  0.076186  0.294831  1.100441
  0.194039  0.518285  0.457316
  0.042282  0.808950  0.588357
  0.693532  0.563801  0.784844
  0.581467  0.844531  0.972872
  0.548890  0.337611  0.215365
  0.520328  0.083589  0.459566
  0.045358  0.139255  0.937479
  0.023558  0.653756  0.423006
  0.523992  0.640472  0.909969
  0.546565  0.300946  0.444907
EA447
 1.0000000000000000
     4.420000    0.000000   -0.000000
     0.000231    4.420000    0.000000
     0.021069   -0.040899    4.176747
 H   O  
   8   4
Direct
  0.399940  0.426521  1.061816
  0.064902  0.414309  1.153625
  0.828788  0.932878  1.044229
  0.482575  0.933073  1.043425
  0.762011  0.435889  0.601067
  0.434698  0.434832  0.483289
  0.332175  0.945827  0.540678
 -0.014032  0.947231  0.543841
  0.198775  0.458905  0.974601
  0.656580  0.935223  0.899836
  0.642659  0.434341  0.405728
  0.158373  0.908679  0.403522
EA448
 1.0000000000000000
     4.420000    0.000000   -0.000000
     0.000231    4.420000    0.000000
     0.021069   -0.040899    4.176747
 H   O  
   8   4
Direct
  0.261200  0.433259  1.018831
 -0.069573  0.422619  0.913969
  0.831908  0.933256  1.043336
  0.485692  0.934889  1.046413
  0.879007  0.435174  0.469411
  0.551899  0.434074  0.591285
  0.328928  0.919209  0.542475
 -0.017270  0.921946  0.542809
  0.134932  0.389799  0.833662
  0.658257  0.933005  0.900839
  0.670712  0.436334  0.394569
  0.156602  0.960276  0.405282
EA449
 1.0000000000000000
     4.429822    0.000000    0.000000
     0.022052    4.429767    0.000000
    -0.011354   -0.038688    4.157806
 H   O  
   8   4
Direct
  0.549964  0.691394  0.059724
  0.415215  0.921552  0.301072
  0.758606  0.857896  0.618399
  1.039808  0.672766  0.532560
  0.050225  0.226802  0.242036
  0.362191  0.277275  0.396576
  0.547740  0.228873  0.747371
  0.859472  0.277587  0.901883
  0.452538  0.706979  0.268485
  0.973955  0.877815  0.580699
  0.147452  0.299977  0.437351
  0.644925  0.298217  0.944163
EA450
 1.0000000000000000
     4.146875    0.000000    0.000000
     0.000167    4.146875   -0.000000
     0.018426   -0.035768    4.745448
 H   O  
   8   4
Direct
  0.481705  0.861183  0.202563
  0.342380  0.782946 -0.088021
  0.983603  0.864554  0.700231
  0.846761  0.786450  0.408521
  0.917106  0.444069  0.182755
  0.881711  0.286190 -0.110416
  0.483645  0.363743  0.690973
  0.354282  0.290468  0.395816
  0.432045  0.959794  0.022332
  0.927123  0.965156  0.522364
  0.966825  0.476947 -0.016016
  0.426248  0.467798  0.515280
EA451
 1.0000000000000000
     4.515761    0.000000    0.000000
     0.025917    4.515686    0.000000
    -0.018775   -0.030895    4.002361
 H   O  
   8   4
Direct
  0.648103  0.421952  0.444705
  0.728436  0.139812  0.243294
  0.657491  0.927275  0.951734
  0.725113  0.648603  0.738090
  0.362657  0.275957  0.647728
  0.173699  0.407572  0.928817
  0.362791  0.776154  0.148409
  0.173399  0.906724  0.429790
  0.792329  0.261507  0.431384
  0.796724  0.763391  0.928148
  0.306340  0.242694  0.878640
  0.305658  0.741623  0.378792
EA452
 1.0000000000000000
     4.420753    0.000000    0.000000
     0.003509    4.420751    0.000000
     0.016190   -0.040629    4.175240
 H   O  
   8   4
Direct
  0.150904  0.386419 -0.029681
 -0.022000  0.673314  0.078271
  0.722707  0.502368  0.597570
  0.413024  0.538149  0.765961
  0.719460  0.998991  0.101101
  0.407284  1.039680  0.262484
  0.846073  0.094281  0.473624
  1.142389 -0.084225  0.480104
  0.025128  0.467696  0.142386
  0.519901  0.417739  0.605696
  0.515220  0.917676  0.104245
  1.008154  0.034843  0.616479
EA453
 1.0000000000000000
     4.554400    0.000000    0.000000
     0.032159    4.554287    0.000000
    -0.025325   -0.032285    3.934570
 H   O  
   8   4
Direct
  0.521854 -0.071952  0.894600
  0.399032  0.179612  1.118176
  0.518818  0.428288  0.395773
  0.390769  0.681382  0.612916
  1.018007  0.429629  0.892865
  0.896219  0.681378  1.117140
  1.022354 -0.069638  0.394138
  0.899217  0.181491  0.618022
  0.367847  0.076799  0.903760
  0.363417  0.575828  0.399578
  0.864927  0.579385  0.902157
  0.868386  0.079137  0.403226
EA454
 1.0000000000000000
     4.450113    0.000000   -0.000000
     0.012497    4.450095   -0.000000
    -0.001452   -0.030905    4.120818
 H   O  
   8   4
Direct
  0.657382  0.885169  0.912112
  0.326999  0.780845  0.909195
  0.465175  0.437410  0.400344
  0.606125  0.167410  0.215719
  0.181446  0.901060  0.411952
 -0.057855  0.719496  0.222446
  0.891931  0.490957  0.846668
  1.146749  0.253824  0.863493
  0.532618  0.706319  0.900171
  0.545493  0.235729  0.430778
  0.044249  0.732083  0.430678
  0.929038  0.275642  0.855027
EA455
 1.0000000000000000
     4.555629    0.000000    0.000000
     0.032560    4.555512    0.000000
    -0.025850   -0.032224    3.932429
 H   O  
   8   4
Direct
  1.017426  0.748322  0.115159
  0.685742  0.714785  0.172719
  1.020443  0.246578  0.617082
  0.687658  0.214500  0.668085
  0.277730  0.071481  0.019493
  0.498439  0.128725  0.310042
  0.276428  0.571391  0.519140
  0.496119  0.628495  0.810875
  0.875876  0.660305  0.266580
  0.876221  0.159318  0.765696
  0.304714  0.184606  0.227820
  0.302895  0.684777  0.727385
EA456
 1.0000000000000000
     4.420885    0.000000    0.000000
     0.011149    4.420870   -0.000000
     0.008151   -0.046299    4.175328
 H   O  
   8   4
Direct
  0.220101  0.585745  0.542758
  0.115312  0.555172  0.195279
  0.329254  1.049134  0.941473
 -0.014434  1.002040  0.896775
  0.612484  0.401948  0.912668
  0.725334  0.723959  0.856677
  0.615703 -0.098126  0.414216
  0.728087  0.223705  0.356202
  0.286214  0.512856  0.333687
  0.155132  0.946396  1.032294
  0.791643  0.514152  0.848897
  0.795773  0.014204  0.353368
EA457
 1.0000000000000000
     4.420000    0.000000    0.000000
     0.000231    4.420000    0.000000
     0.021069   -0.040899    4.176747
 H   O  
   8   4
Direct
  0.359504  0.242586  0.788606
  0.627056  0.041306  0.691766
  0.859445  0.242167  0.289150
  1.126845  0.041127  0.191213
  0.361149  0.744059  0.293731
  0.623586  0.538163  0.193182
  0.859339  0.742893  0.791928
  1.127560  0.543197  0.693287
  0.408790  0.058784  0.669015
  0.908566  0.058789  0.168732
  0.405548  0.559995  0.172420
  0.909209  0.560072  0.670821
EA458
 1.0000000000000000
     4.420379    0.000000    0.000000
     0.000322    4.420379    0.000000
     0.020925   -0.040874    4.176032
 H   O  
   8   4
Direct
  0.385861  0.085639  0.614796
  0.209991  0.006008  0.921544
  0.383855  0.586163  0.114981
  0.208543  0.505137  0.421757
  0.802857  0.184109  0.602758
  0.832107  0.213456  0.966684
  0.804504  0.681871  0.107196
  0.827609  0.715885  0.470928
  0.258440 -0.069691  0.708376
  0.256454  0.430507  0.208025
  0.707060  0.278321  0.788980
  0.704843  0.777670  0.290244
EA459
 1.0000000000000000
     4.456337    0.000000    0.000000
     0.030332    4.456234    0.000000
    -0.023416   -0.036537    4.109603
 H   O  
   8   4
Direct
  0.080429  0.325970  0.298141
  0.037031 -0.007080  0.218370
  0.574073  0.323849  0.799607
  0.539162 -0.009641  0.718507
 -0.016196  0.700969  0.609691
  0.276664  0.724272  0.812267
  0.655167  0.809505  0.422639
  0.626908  0.560025  0.161772
  0.190623  0.137166  0.279953
  0.689024  0.137902  0.781647
  0.076534  0.810910  0.789060
  0.515912  0.722859  0.265817
EA460
 1.0000000000000000
     4.542429    0.000000   -0.000000
     0.028249    4.542341    0.000000
    -0.020160   -0.032879    3.955534
 H   O  
   8   4
Direct
  0.035303  0.231921  0.075191
  0.110192  0.038794  0.381949
  0.315795  0.383793  0.304255
  0.169372  0.601439  0.056791
  0.815407  0.381474  0.804512
  0.668949  0.599578  0.557505
  0.600126  0.131892  0.882777
  0.420313  0.025705  0.574867
 -0.048062  0.086786  0.225583
  0.359659  0.539087  0.144857
  0.859246  0.536735  0.645037
  0.573556 -0.035680  0.731572
EA461
 1.0000000000000000
     4.501693    0.000000    0.000000
     0.019731    4.501650    0.000000
    -0.008241   -0.035590    4.026923
 H   O  
   8   4
Direct
  0.673782  0.172003  0.626353
  0.474871 -0.077359  0.758764
  0.673092  0.670416  0.126049
  0.471071  0.425230  0.261899
 -0.023025  0.022807  0.262252
  0.116039  0.221760  0.529589
  0.070856  0.544661  0.837170
  0.074784  0.877049  0.747070
  0.534323  0.126376  0.802297
  0.533535  0.628390  0.303061
  0.081709  0.210020  0.291270
 -0.049102  0.700573  0.737216
EA462
 1.0000000000000000
     4.431221   -0.000000    0.000000
    -0.000886    4.431221    0.000000
     0.018791   -0.033436    4.155880
 H   O  
   8   4
Direct
  0.415534  0.773752  0.226435
  0.491545  0.639458 -0.108369
 -0.084197  0.690943  0.352110
  0.042377  0.816848  0.667610
 -0.085248  0.190711  0.853055
  0.042444  0.316527  1.168125
  0.418400  0.287952  0.724310
  0.494796  0.137836  0.396953
  0.439060  0.827077  0.001118
  0.061787  0.835449  0.435268
  0.061923  0.334279  0.935613
  0.443402  0.330497  0.496512
EA463
 1.0000000000000000
     4.473388    0.000000    0.000000
     0.011147    4.473374    0.000000
     0.004002   -0.037124    4.078382
 H   O  
   8   4
Direct
  0.543015  0.070620  0.171492
  0.671952  0.196688  0.495595
 -0.057245  0.665600  0.286583
  0.214597  0.716865  0.506994
  0.673609  0.676132  0.988253
  0.835223  0.381566  0.898323
  0.175412  0.176741  0.991540
  0.343738 -0.113696  0.900261
  0.575983  0.021203  0.400560
  0.103651  0.559020  0.396233
  0.639205  0.464335  0.948258
  0.145839 -0.035518  0.950149
EA464
 1.0000000000000000
     4.434905    0.000000    0.000000
     0.003442    4.434904    0.000000
     0.015906   -0.039768    4.148862
 H   O  
   8   4
Direct
  0.022395  0.549659  0.504191
  0.220094  0.827923  0.443145
  0.182341  0.002172  0.864457
  0.039180  0.298454  0.992136
  0.809082  0.111040  0.561748
  0.490453  0.253291  0.555517
  0.523977  0.549615  0.996628
  0.722958  0.827811  0.936888
  0.217071  0.610080  0.418328
  0.208509  0.219860  0.867703
  0.640147  0.153013  0.420141
  0.720356  0.609612  0.914695
EA465
 1.0000000000000000
     4.424165    0.000000    0.000000
     0.000086    4.424165   -0.000000
     0.019111   -0.036757    4.168829
 H   O  
   8   4
Direct
  0.488157  0.256578  0.088172
  0.550024  0.083395  0.401230
  0.162925  0.741907  0.352410
  0.002064  0.735862  0.028364
  0.163089  0.241613  0.852018
  0.002748  0.236610  0.527717
  0.484301  0.766837  0.589842
  0.559828  0.586002  0.894752
  0.421016  0.237889  0.309624
 -0.032812  0.701324  0.255860
 -0.032812  0.202592  0.755094
  0.425528  0.741021  0.813022
EA466
 1.0000000000000000
     4.416635    0.000000    0.000000
    -0.001324    4.416635    0.000000
     0.029579   -0.052750    4.184126
 H   O  
   8   4
Direct
  0.707792  0.747518  0.729507
  0.964339  0.807935  0.965784
  0.208331  0.249831  0.730914
  0.464348  0.308205  0.968438
  0.709241  0.244986  0.231608
  0.961232  0.310781  0.471331
  0.208021  0.747607  0.228945
  0.463959  0.807647  0.466074
  0.759101  0.870843  0.915873
  0.259312  0.371746  0.918460
  0.755693  0.370068  0.418170
  0.258758  0.870447  0.415852
EA467
 1.0000000000000000
     4.425067    0.000000    0.000000
     0.021590    4.425014   -0.000000
    -0.010687   -0.038904    4.166691
 H   O  
   8   4
Direct
  0.076544  0.608671  0.782155
  0.091874  0.547804  0.416799
  0.186700  0.165990  0.161854
 -0.092458 -0.007114  0.034070
  0.688876  0.173544  0.657637
  0.414872 -0.011985  0.538284
  0.565247  0.600367  0.288781
  0.579750  0.567784 -0.080452
  0.129649  0.454805  0.623624
  0.104349 -0.035967  0.134088
  0.616361 -0.032091  0.629710
  0.627273  0.463033  0.117490
EA468
 1.0000000000000000
     4.420000    0.000000    0.000000
     0.000231    4.420000    0.000000
     0.021069   -0.040899    4.176747
 H   O  
   8   4
Direct
  0.314449  0.399141  0.723229
  0.461316  0.277479  1.026937
  0.813977  0.899939  0.732187
  0.957174  0.770069  1.034104
  0.995598  0.361709  0.577217
  0.758600  0.155111  0.422981
  0.494915  0.863895  0.579760
  0.259593  0.655581  0.425103
  0.508285  0.385469  0.831060
  1.006210  0.886231  0.843983
  0.882935  0.331858  0.379722
  0.383383  0.832688  0.381706
EA469
 1.0000000000000000
     2.938867   -0.000000    0.000000
     0.000000    9.625379   -0.000000
    -0.560259    0.000000    2.884970
 H   O  
   8   4
Direct
  0.072173  0.054481  0.310505
  0.058383  0.212245  0.256985
  0.572173  0.554481  0.310505
  0.558383  0.712245  0.256985
  0.072173  0.945519  0.810505
  0.058383  0.787755  0.756985
  0.572173  0.445519  0.810505
  0.558383  0.287755  0.756985
 -0.130556  0.129904  0.182510
  0.369444  0.629904  0.182510
 -0.130556  0.870096  0.682510
  0.369444  0.370096  0.682510
EA470
 1.0000000000000000
     3.442731   -0.000000   -0.000000
     0.000000    3.442731   -0.000000
     0.000000    0.000000    6.885461
 H   O  
   8   4
Direct
  0.114565  0.066784 -0.093397
 -0.111701 -0.160477  0.059682
  0.066784  0.114565  0.593397
 -0.160477 -0.111701  0.440318
  0.282023  0.570412  0.251202
  0.678990  0.400008  0.301092
  0.570412  0.282023  0.748798
  0.400008  0.678990  0.698908
 -0.002864  0.093692  0.033716
  0.093692 -0.002864  0.466284
  0.538987  0.529580  0.197707
  0.529580  0.538987  0.802293
EA471
 1.0000000000000000
     5.963041    0.000000   -0.000000
     2.981520    6.885526   -0.000000
     0.000000    0.000000    1.987624
 H   O  
   8   4
Direct
 -0.045552 -0.074872  0.332136
  0.099918  0.023406  0.696786
  0.204448  0.425128  0.667864
  0.349918  0.523406  0.303214
  0.704448  0.425128  0.332136
  0.849918  0.523406  0.696786
  0.454448 -0.074872  0.667864
  0.599918  0.023406  0.303214
 -0.054365  0.051466  0.471077
  0.195635  0.551466  0.528923
  0.695635  0.551466  0.471077
  0.445635  0.051466  0.528923
EA472
 1.0000000000000000
     4.337569    0.000000    0.000000
     0.000000    4.337569    0.000000
     0.000000    0.000000    4.337569
 H   O  
   8   4
Direct
  0.386418  0.134150  0.282056
  0.086616  0.318177  0.291426
  0.386418  0.634150  0.782056
  0.086616  0.818177  0.791426
  0.886418  0.134150  0.782056
  0.586616  0.318177  0.791426
  0.886418  0.634150  0.282056
  0.586616  0.818177  0.291426
  0.276966  0.297673  0.176518
  0.276966  0.797673  0.676518
  0.776966  0.297673  0.676518
  0.776966  0.797673  0.176518
EA473
 1.0000000000000000
     4.120132    0.000000    0.000000
     0.000000    4.120132    0.000000
     0.000000    0.000000    4.807473
 H   O  
   8   4
Direct
  0.475140 -0.175290 -0.062365
  0.486610  0.124139  0.124343
 -0.024860  0.324710 -0.062365
 -0.013390  0.624139  0.124343
 -0.024860 -0.175290  0.437635
 -0.013390  0.124139  0.624343
  0.475140  0.324710  0.437635
  0.486610  0.624139  0.624343
  0.538251  0.051151 -0.061979
  0.038251  0.551151 -0.061979
  0.038251  0.051151  0.438021
  0.538251  0.551151  0.438021
EA474
 1.0000000000000000
     5.977493    0.000000    0.000000
     0.000000    3.019960    0.000000
     0.000000    0.000000    4.520837
 H   O  
   8   4
Direct
  0.465605  0.629279  0.099845
  0.304027  0.964663 -0.034926
  0.648348 -0.056486  0.599845
  0.486770  0.278897  0.465074
  0.148348  0.629279  0.599845
 -0.013230  0.964663  0.465074
  0.965605 -0.056486  0.099845
  0.804027  0.278897 -0.034926
  0.456253  0.934707  0.035683
  0.638996  0.248941  0.535683
  0.138996  0.934707  0.535683
  0.956253  0.248941  0.035683
EA475
 1.0000000000000000
     4.420000    0.000000   -0.000000
     0.000231    4.420000    0.000000
     0.021069   -0.040899    4.176747
 H   O  
   8   4
Direct
  0.306398  0.389893  0.743439
  0.466276  0.241719  1.031326
  0.806402  0.881526  0.746547
  0.972320  0.741662  1.035249
  1.015693  0.531299  0.472216
  0.738751  0.325645  0.535953
  0.520563  1.026554  0.460364
  0.238357  0.835644  0.546327
  0.488437  0.400358  0.872998
  0.989253  0.898418  0.874223
  0.913182  0.350463  0.394782
  0.407028  0.847919  0.395605
EA476
 1.0000000000000000
     4.420000    0.000000   -0.000000
     0.000231    4.420000    0.000000
     0.021069   -0.040899    4.176747
 H   O  
   8   4
Direct
  0.320933  0.404690  0.719663
  0.447812  0.231003  1.009866
  0.817348  0.897370  0.720633
  0.948582  0.726986  1.010811
  0.894055  0.528884  0.589153
  0.951759  0.304626  0.308392
  0.383689  1.026275  0.594559
  0.457744  0.812775  0.308594
  0.475174  0.413667  0.884791
  0.973038  0.909012  0.884148
  1.030006  0.487788  0.410262
  0.526097  0.995586  0.419014
EA477
 1.0000000000000000
     4.421000   -0.000000    0.000000
     0.003472    4.420999    0.000000
     0.016177   -0.040599    4.174771
 H   O  
   8   4
Direct
  0.151663  0.340166  0.026773
 -0.132066  0.501866  0.163511
  0.648218  0.397718  0.503286
  0.483048  0.532178  0.798198
  0.595827  0.818172 -0.004011
  0.666331  1.112246  0.183821
  0.814266 -0.122387  0.512006
  1.154136 -0.116886  0.442321
  0.007203  0.335914  0.203171
  0.476080  0.365572  0.644676
  0.537796  0.933816  0.185903
  1.009132 -0.106563  0.617980
EA478
 1.0000000000000000
     4.421000   -0.000000    0.000000
     0.003472    4.420999    0.000000
     0.016177   -0.040599    4.174771
 H   O  
   8   4
Direct
  0.147540  0.448028 -0.079922
 -0.136530  0.597965  0.070495
  0.684061  0.396614  0.478797
  0.548924  0.554686  0.777843
  0.700683  1.000629  0.076816
  0.409452  0.894012  0.246995
  0.866181 -0.116982  0.490699
  1.206702 -0.113143  0.554092
  0.002909  0.429395  0.095105
  0.510748  0.393689  0.622963
  0.547320  0.843006  0.072532
  1.012279 -0.103996  0.663740
EA479
 1.0000000000000000
     4.420000    0.000000   -0.000000
     0.000231    4.420000    0.000000
     0.021069   -0.040899    4.176747
 H   O  
   8   4
Direct
  0.327360  0.432816  1.051087
 -0.018448  0.434953  1.044092
  0.829706  0.916838  1.041644
  0.483490  0.917960  1.041836
  0.831289  0.451327  0.541343
  0.485037  0.450889  0.544272
  0.331353  0.932439  0.542873
 -0.014851  0.934351  0.546174
  0.157646  0.433528  0.903383
  0.657241  0.966354  0.907851
  0.657743  0.403030  0.407545
  0.157642  0.934949  0.400522
EA480
 1.0000000000000000
     4.420000    0.000000   -0.000000
     0.000231    4.420000    0.000000
     0.021069   -0.040899    4.176747
 H   O  
   8   4
Direct
  0.328000  0.432386  1.051081
 -0.017830  0.434589  1.045059
  0.830997  0.948907  1.039688
  0.484777  0.949925  1.041802
  0.830540  0.418666  0.543483
  0.484287  0.418371  0.544933
  0.329776  0.932880  0.544384
 -0.016427  0.934711  0.544371
  0.157920  0.434307  0.903871
  0.657574  0.901564  0.905413
  0.657397  0.467244  0.410206
  0.157290  0.934170  0.400349
EA481
 1.0000000000000000
     4.417243   -0.000000    0.000000
    -0.001018    4.417243    0.000000
     0.027986   -0.050595    4.182478
 H   O  
   8   4
Direct
  0.790219  0.552152  0.871925
  0.554691  0.573922  0.606686
  0.793343  0.052018  0.373990
  0.556464  0.072991  0.110020
  0.208093  0.631288  0.406270
  0.109533  0.300485  0.395761
  0.199442  1.132217  0.906247
  0.107737  0.799332  0.898687
  0.702004  0.435920  0.696519
  0.707211 -0.063290  0.196665
  0.108020  0.483778  0.268453
  0.109100  0.979576  0.766939
EA482
 1.0000000000000000
     4.422401    0.000000    0.000000
     0.012815    4.422382   -0.000000
     0.005107   -0.045115    4.172935
 H   O  
   8   4
Direct
  0.651042  0.511958  0.414368
  0.696125  0.631087  0.756748
  0.663533 -0.052897  0.213528
  0.533723  0.174054 -0.030061
  0.006426  0.964101  0.319860
  0.223430  1.006766  0.606301
  0.007379  0.239053  0.912287
  0.115033  0.563079  0.971133
  0.540217  0.596836  0.595931
  0.514527  0.107683  0.190633
  0.043564  0.897576  0.537477
 -0.007469  0.404920  1.066177
EA483
 1.0000000000000000
     4.427762    0.000000   -0.000000
     0.018279    4.427724   -0.000000
    -0.004624   -0.041295    4.162209
 H   O  
   8   4
Direct
  0.983114  0.906969  0.401692
  0.710404  0.716365  0.288794
  0.942009  0.185811  0.756513
  0.873116  0.510819  0.862842
  0.439295  0.679536  0.752402
  0.370441  1.003317  0.861874
  0.439611  0.173755  0.252981
  0.363637  0.498683  0.352898
  0.772731  0.864237  0.449987
  0.826725  0.301982  0.914065
  0.334500  0.794105  0.918763
  0.340274  0.290744  0.421732
EA484
 1.0000000000000000
     4.421231    0.000000    0.000000
     0.005586    4.421228    0.000000
     0.013101   -0.040455    4.174285
 H   O  
   8   4
Direct
  0.670662  0.813475 -0.160853
  0.689460  0.765827  0.205475
  0.362382  0.266349  0.636799
  0.242461  0.163717  0.961969
  0.868241  0.269782  0.136655
  0.741275  0.163689  0.457950
  0.029729  0.875987  0.331337
  0.244487  0.823777  0.617208
  0.589250  0.692329  0.013134
  0.386636  0.302204  0.865777
  0.887788  0.302745  0.366643
  0.170774  0.729974  0.420614
EA485
 1.0000000000000000
     4.422283    0.000000    0.000000
     0.003936    4.422281   -0.000000
     0.016479   -0.042267    4.173117
 H   O  
   8   4
Direct
  0.918718  0.424090  0.421382
  0.691435  0.566197  0.655272
  0.273534  0.621910 -0.063750
  0.339664  0.364102  0.167496
  0.936391  0.951545  0.260107
  0.607603  0.967870  0.137255
  0.276650  0.121894  0.438295
  0.341588 -0.135068  0.670961
  0.902577  0.575170  0.591199
  0.407366  0.565731  0.110624
  0.817060  0.989839  0.069308
  0.412427  0.064642  0.610657
EA486
 1.0000000000000000
     4.419380    0.000000    0.000000
     0.007005    4.419375   -0.000000
     0.015575   -0.049116    4.178897
 H   O  
   8   4
Direct
  0.563998  0.903152  0.194934
  0.239590  0.816425  0.107894
  0.449961  0.571473  0.692522
  0.406968  0.241744  0.575263
  0.870078  0.250830  0.240917
  0.977553  0.411241 -0.065751
  0.026945  0.923660  0.411209
 -0.072033  0.976505  0.758645
  0.438935  0.845734  0.013439
  0.544070  0.413484  0.562523
  1.033181  0.373872  0.155323
  0.104809  0.984593  0.620053
EA487
 1.0000000000000000
     4.429863    0.000000    0.000000
     0.021739    4.429809    0.000000
    -0.010882   -0.038728    4.158063
 H   O  
   8   4
Direct
 -0.023150  0.716760  0.937284
  0.277237  0.848221  1.053314
 -0.024312  0.215408  0.444701
  0.276975  0.349590  0.553145
  0.476988  0.715982  0.437231
  0.776990  0.848440  0.553133
  0.477714  0.216836  0.938774
  0.776938  0.350063  1.056083
  0.146834  0.836726  0.864980
  0.143192  0.336248  0.367678
  0.646449  0.836691  0.364923
  0.647028  0.338294  0.867369
EA488
 1.0000000000000000
     4.443291    0.000000    0.000000
     0.020212    4.443246    0.000000
    -0.006420   -0.042383    4.133590
 H   O  
   8   4
Direct
  0.768623  0.675229  0.637912
  0.428270  0.716030  0.573228
  0.027596  0.833566  0.175490
  0.218326  0.760350 -0.123149
  0.107402  0.251905  0.256019
  0.120661  0.449076  0.561189
  0.599796  0.255746  0.755773
  0.618178  0.446035  1.065022
  0.595094  0.797658  0.698480
  0.215677  0.737214  0.110520
 -0.017853  0.330138  0.430387
  0.475777  0.336186  0.930192
EA489
 1.0000000000000000
     4.430318    0.000000    0.000000
     0.001372    4.430318   -0.000000
     0.015278   -0.032847    4.157198
 H   O  
   8   4
Direct
  0.287708  0.530418  0.224869
  0.398031  0.853170  0.180994
  0.868634  0.607908  0.915678
  0.829923  0.947422  0.990899
  0.374774  0.098673  0.789319
  0.426930  0.345306  0.534703
  0.840799  0.259951  0.540156
  0.989700  0.286342  0.203661
  0.239615  0.715684  0.112127
  0.842004  0.802952  0.813778
  0.275095  0.264335  0.679892
  0.794934  0.280498  0.312427
EA490
 1.0000000000000000
     4.416000    0.000000    0.000000
    -0.001619    4.416000   -0.000000
     0.031196   -0.055001    4.185522
 H   O  
   8   4
Direct
  0.827017  0.504405 -0.013294
  0.573807  0.423456  0.227754
  0.713822 -0.126933  0.346152
  0.701407  0.071935  0.647624
  0.023472 -0.075305  0.880160
  0.149766  0.227961  0.999427
  0.022084  0.423683  0.379397
  0.147458  0.727444  0.498479
  0.616976  0.438740  0.000292
  0.754246  0.077801  0.422158
  0.135189  0.101643  0.808073
  0.128974  0.603100  0.306165
EA491
 1.0000000000000000
     4.419139    0.000000    0.000000
     0.001582    4.419139   -0.000000
     0.021740   -0.045937    4.178766
 H   O  
   8   4
Direct
  0.969732  0.765507  1.084932
  0.836406  0.948827  0.811039
  0.972911  0.265585  0.586990
  0.838112  0.449495  0.314356
  0.520383  0.804610  0.313085
  0.278373  0.921577  0.546069
  0.228306  0.207776 -0.126281
  0.348742  0.396165  0.159585
  0.823945  0.751768  0.911434
  0.829161  0.250745  0.411601
  0.323492  0.753629  0.401732
  0.393524  0.219671  0.026401
EA492
 1.0000000000000000
     4.524798    0.000000   -0.000000
     0.027251    4.524716   -0.000000
    -0.018864   -0.033721    3.985814
 H   O  
   8   4
Direct
  0.700876  0.661506  0.103909
  0.671158  0.366452 -0.089007
  0.489779  0.860179  0.702501
  0.490370  0.961872  0.332941
  0.315110  0.478160  0.508940
  0.020407  0.455438  0.701897
  0.002483  0.891547  0.197029
 -0.010608  0.981904 -0.173763
  0.555501  0.523501  0.015722
  0.618303  0.890213  0.511362
  0.103415  0.515982  0.488691
  0.126760  0.927517  0.003613
EA493
 1.0000000000000000
     4.410022    0.000000    0.000000
    -0.001821    4.410022   -0.000000
     0.035397   -0.062507    4.196342
 H   O  
   8   4
Direct
  0.538195  0.906551  0.695914
  0.219791  0.759870  0.704605
  1.038073  0.908031  0.195764
  0.720080  0.760389  0.204777
  1.037509  0.407374  0.694464
  0.719426  0.259969  0.704734
  0.535358  0.406536  0.191586
  0.219256  0.255039  0.205042
  0.325322  0.951836  0.735963
  0.825093  0.952667  0.236078
  0.824632  0.452273  0.735052
  0.322507  0.448347  0.235871
EA494
 1.0000000000000000
     4.420859    0.000000    0.000000
     0.009608    4.420849   -0.000000
     0.009938   -0.045553    4.175738
 H   O  
   8   4
Direct
  0.013047  0.276188  0.963165
  0.344998  0.166760  0.962475
  0.090111  0.848020  0.555581
  0.142732  0.532900  0.411399
  0.564035  0.886573  0.906905
  0.608482  0.555264  0.812922
  0.448106  0.314718  0.387619
  0.689608  0.076322  0.293920
  0.219295  0.344949  0.930295
  0.186020  0.745588  0.374914
  0.693520  0.713147  0.948826
  0.583389  0.163525  0.477199
EA495
 1.0000000000000000
     4.461131    0.000000    0.000000
     0.009079    4.461122   -0.000000
     0.011779   -0.046738    4.100976
 H   O  
   8   4
Direct
  0.771441  0.558590  0.305765
  0.444150  0.524730  0.188677
  0.054428  0.250205  0.081781
  0.226535 -0.044158  0.120395
  0.752191  0.155285  0.456468
  0.527442  0.061346  0.718166
  0.056344  0.749592  0.584674
  0.229117  0.455568  0.622487
  0.622741  0.647023  0.162555
  0.218765  0.160920  0.202946
  0.711711  0.173579  0.688691
  0.224178  0.661882  0.701581
EA496
 1.0000000000000000
     4.417775    0.000000    0.000000
    -0.000046    4.417776   -0.000000
     0.027015   -0.051388    4.182010
 H   O  
   8   4
Direct
  0.828174  0.237545  0.640402
  0.913950  0.575298  0.609938
  0.275524  0.267517  0.248267
  0.377716  0.516756  0.015854
  0.317492  0.610756  0.609128
  0.252348  0.950273  0.594715
  0.762474  0.761350 -0.068103
  0.811260  0.784741  0.293153
  0.991283  0.371575  0.574358
  0.433587  0.416942  0.213026
  0.415141  0.803895  0.569919
  0.919630  0.795592  0.090511
EA497
 1.0000000000000000
     4.427215    0.000000    0.000000
     0.003443    4.427214    0.000000
     0.016067   -0.040228    4.163203
 H   O  
   8   4
Direct
  0.137272  1.054022  0.753639
  0.124209  0.914281  1.093121
  0.026446  0.511883  0.193580
  0.203340  0.470860  0.505751
  0.708573  0.775084  0.707700
  0.609016  1.002408  0.449669
  0.691142  0.267317  0.201375
  0.586909  0.504387 -0.043873
  0.171174  0.866839  0.869707
  0.080283  0.360115  0.351347
  0.652305  0.789567  0.482755
  0.649997  0.294854 -0.025796
EA498
 1.0000000000000000
     4.429608    0.000000   -0.000000
     0.021186    4.429557   -0.000000
    -0.010066   -0.038787    4.158544
 H   O  
   8   4
Direct
  0.812286  0.527022  0.139101
  0.978168  0.586706 -0.176039
  0.312699  0.535653  0.640915
  0.483154  0.587265  0.326524
  0.378644 -0.083241 -0.042741
  0.288149  0.202784  0.150648
  0.810686  0.032584  0.639233
  0.983746  0.083599  0.326739
  1.004954  0.596003  0.056106
  0.497882  0.622244  0.557538
  0.451343  0.114578  0.024124
  1.001690  0.107325  0.558626
EA499
 1.0000000000000000
     4.411525    0.000000    0.000000
    -0.001789    4.411525    0.000000
     0.034368   -0.060618    4.193620
 H   O  
   8   4
Direct
  0.474657  0.566933  0.594283
  0.271929  0.848140  0.593748
  0.471093  0.066642  0.090790
  0.268490  0.348011  0.091354
  0.854291  0.072606  0.606300
  0.765470  0.358644  0.419965
  0.848455  0.568377  1.105568
  0.766374  0.856525  0.919180
  0.263185  0.628772  0.611951
  0.260278  0.129119  0.114220
  0.752459  0.138306  0.414470
  0.751206  0.636321  0.912004
EA500
 1.0000000000000000
     4.465949    0.000000    0.000000
     0.010220    4.465937    0.000000
     0.009776   -0.045879    4.092104
 H   O  
   8   4
Direct
 -0.005657  0.515765  0.788851
  0.067196  0.499548  0.420746
  0.601877  0.901637  0.692291
  0.313364  0.780935  0.535046
  0.007276  0.760026  0.111025
  0.033314  1.058654 -0.066144
  0.411448  0.496726  0.134078
  0.615241  0.344966 -0.119162
  0.075425  0.383491  0.620183
  0.412821  0.965741  0.598699
  0.123872  0.944044  0.108657
  0.619479  0.444201  0.093204
EA501
 1.0000000000000000
     4.422133    0.000000    0.000000
     0.000149    4.422133    0.000000
     0.020037   -0.038680    4.172503
 H   O  
   8   4
Direct
  0.893953  0.934683  0.742672
  0.852923  0.890966  1.101864
  0.179863  0.404286  0.031853
 -0.148599  0.498324  0.092766
  0.680284  0.405005  0.532277
  0.351495  0.498205  0.592556
  0.355041  0.884698  0.562723
  0.319395  1.121489  0.294777
  0.752004  0.975190  0.916341
  0.030648  0.426306  0.202816
  0.530627  0.426300  0.702893
  0.211441  0.962346  0.407417
EA502
 1.0000000000000000
     2.819484   -0.000000    0.000000
     0.000000    7.595408   -0.000000
    -0.957353    0.000000    3.810820
 H   O  
   8   4
Direct
  0.519339  0.182785  0.642961
  0.746617  0.020281  0.847672
  0.519339  0.317215  0.142961
  0.746617  0.479719  0.347672
  0.382409  0.881833  0.033627
  0.398559  0.864804  0.423363
  0.382409  0.618167  0.533627
  0.398559  0.635196  0.923363
  0.764444  0.147634  0.850267
  0.764444  0.352366  0.350267
  0.188631  0.902663  0.202111
  0.188631  0.597337  0.702111
EA503
 1.0000000000000000
     5.632442   -0.000000   -0.000000
     0.000000    4.981636   -0.000000
     0.000000    0.000000    2.908509
 H   O  
   8   4
Direct
  0.937893  0.649775  0.556341
  0.841978  0.783684  0.122388
  0.437893  0.850225  0.306541
  0.341978  0.716316 -0.127412
  0.681001  0.203098  1.101876
  0.556026  0.217482  0.636859
  0.181001  0.296902  0.852076
  0.056026  0.282518  0.387059
  0.870329  0.816542  0.445971
  0.370329  0.683458  0.196171
  0.612773  0.329420  0.885964
  0.112773  0.170580  0.636164
EA504
 1.0000000000000000
     4.337569   -0.000000   -0.000000
     0.000000    4.337569   -0.000000
     0.000000    0.000000    4.337569
 H   O  
   8   4
Direct
  0.410050  0.157504  0.512650
  0.503308 -0.181726  0.504844
 -0.157504  0.512650  0.589950
  0.181726  0.504844  0.496692
  0.487350  0.589950  0.157504
  0.495156  0.496692 -0.181726
 -0.054586  0.154580 -0.078638
 -0.026321 -0.175206  0.040848
  0.586642  0.024221  0.482506
 -0.024221  0.482506  0.413358
  0.517494  0.413358  0.024221
  0.080908  0.020626  0.037789
EA505
 1.0000000000000000
     4.468514    0.000000    0.000000
     0.000000    4.468514    0.000000
     0.000000    0.000000    4.087078
 H   O  
   8   4
Direct
 -0.147134 -0.093623  0.279659
  0.081820  0.154026  0.220441
  0.352866  0.406377  0.779659
  0.581820  0.654026  0.720441
  0.352866  0.406377  0.279659
  0.581820  0.654026  0.220441
 -0.147134 -0.093623  0.779659
  0.081820  0.154026  0.720441
  0.065314 -0.060403  0.249900
  0.565314  0.439597  0.749900
  0.565314  0.439597  0.249900
  0.065314 -0.060403  0.749900
EA506
 1.0000000000000000
     3.805566    0.000000    0.000000
    -1.531152    5.635088   -0.000000
     0.000000    0.000000    3.805566
 H   O  
   8   4
Direct
  0.168364  0.699980  0.704680
  0.216442  0.737270  0.308781
  0.668364  0.199980  0.704680
  0.716442  0.237270  0.308781
  0.003939  0.035554  0.204680
  0.052016  0.072844 -0.191219
  0.503939  0.535554  0.204680
  0.552016  0.572844 -0.191219
  0.166710  0.614266  0.486539
  0.666710  0.114266  0.486539
  0.002284 -0.050159 -0.013461
  0.502284  0.449841 -0.013461
EA507
 1.0000000000000000
     4.457806   -0.000000    0.000000
    -2.228903    3.860573   -0.000000
     0.000000    0.000000    4.742051
 H   O  
   8   4
Direct
  0.100386  0.156059 -0.105243
 -0.002506 -0.134454  0.109436
  0.433720  0.822726 -0.091177
  0.330828  0.532213  0.123502
  0.767053  0.489393  0.880690
  0.664161  0.198880  1.095369
  0.100386  0.156059  0.394757
 -0.002506 -0.134454  0.609436
 -0.097881 -0.021606 -0.004193
  0.235453  0.645061  0.009874
  0.568786  0.311728  0.981741
 -0.097881 -0.021606  0.495807
EA508
 1.0000000000000000
     4.420000    0.000000   -0.000000
     0.000231    4.420000    0.000000
     0.021069   -0.040899    4.176747
 H   O  
   8   4
Direct
  0.398735  0.437845  1.031942
  0.067969  0.456485  1.139219
  0.831126  0.933293  1.043450
  0.484906  0.933632  1.046520
  0.747820  0.434936  0.621857
  0.427632  0.434809  0.484099
  0.330289  0.918322  0.556807
 -0.015910  0.920419  0.556303
  0.193710  0.405535  0.954590
  0.657476  0.934220  0.900967
  0.639444  0.435198  0.419457
  0.158199  0.962712  0.420467
EA509
 1.0000000000000000
     4.420000    0.000000   -0.000000
     0.000231    4.420000    0.000000
     0.021069   -0.040899    4.176747
 H   O  
   8   4
Direct
  0.255016  0.425383  1.043181
 -0.070845  0.445620  0.924180
  0.829570  0.932851  1.044122
  0.483360  0.934316  1.043334
  0.880399  0.435554  0.441695
  0.560451  0.434699  0.583471
  0.330738  0.942355  0.526342
 -0.015462  0.944652  0.530106
  0.137215  0.477479  0.855238
  0.657363  0.934003  0.899699
  0.668280  0.435437  0.379802
  0.156612  0.901996  0.390632
EA510
 1.0000000000000000
     4.420000    0.000000   -0.000000
     0.000231    4.420000    0.000000
     0.021069   -0.040899    4.176747
 H   O  
   8   4
Direct
  0.376368  0.432409  0.910607
  0.060486  0.432522  1.061477
  0.828718  0.933393  1.003737
  0.482516  0.934296  1.001731
  0.708582  0.434560  0.555733
  0.413330  0.435295  0.365916
  0.332046  0.933815  0.488500
 -0.014135  0.936199  0.494657
  0.162795  0.435832  0.854756
  0.656964  0.933989  0.858703
  0.631978  0.435642  0.337564
  0.157264  0.932784  0.347563
EA511
 1.0000000000000000
     4.420000    0.000000   -0.000000
     0.000231    4.420000    0.000000
     0.021069   -0.040899    4.176747
 H   O  
   8   4
Direct
  0.226941  0.435706  1.156255
 -0.082155  0.436327  0.993582
  0.832305  0.932626  1.083819
  0.486092  0.933518  1.088106
  0.930483  0.436022  0.469249
  0.635561  0.434968  0.662778
  0.328441  0.930279  0.598685
 -0.017739  0.931744  0.595806
  0.133468  0.433066  0.945663
  0.658210  0.934106  0.941954
  0.711606  0.435276  0.443757
  0.157044  0.935165  0.453326
EA512
 1.0000000000000000
     4.428000   -0.000000    0.000000
     0.018316    4.427962    0.000000
    -0.004649   -0.041313    4.161792
 H   O  
   8   4
Direct
  0.896354  0.885787  0.470099
  0.955628  0.658718  0.192520
  0.748833  0.135977  0.788257
  0.941534  0.414021  0.720396
  0.330071  0.566833  0.792779
  0.328292  0.912557  0.794434
  0.327898  0.064214  0.299790
  0.324984  0.409458  0.292828
  0.818093  0.702943  0.369109
  0.841356  0.309048  0.894085
  0.325438  0.740350  0.938073
  0.316335  0.240399  0.440425
EA513
 1.0000000000000000
     4.422000    0.000000   -0.000000
     0.003936    4.421998    0.000000
     0.016460   -0.042257    4.172754
 H   O  
   8   4
Direct
  0.992220  0.542461  0.465232
  0.707960  0.481112  0.671004
  0.246579  0.535626 -0.050023
  0.415932  0.408342  0.243240
  0.815228  0.924628  0.206161
  0.784877  1.090524 -0.116718
  0.243721  0.069513  0.435084
  0.375457 -0.109600  0.718302
  0.876478  0.620203  0.646646
  0.419410  0.571785  0.088626
  0.908105  1.080372  0.075654
  0.409744  0.068030  0.587318
EA514
 1.0000000000000000
     4.422000    0.000000   -0.000000
     0.003936    4.421998    0.000000
     0.016460   -0.042257    4.172754
 H   O  
   8   4
Direct
  0.795972  0.368747  0.466938
  0.848461  0.635795  0.701801
  0.268059  0.607277 -0.098921
  0.398463  0.443416  0.196057
  0.991984  0.942532  0.224439
  0.751735  1.060945 -0.011855
  0.274888  0.084642  0.428270
  0.440194 -0.032594  0.727986
  0.930281  0.537952  0.510563
  0.435679  0.610812  0.051328
  0.943648  1.112768  0.087996
  0.444934  0.126794  0.568958
EA515
 1.0000000000000000
     4.421018    0.000000    0.000000
     0.009667    4.421007    0.000000
     0.009875   -0.045563    4.175705
 H   O  
   8   4
Direct
  0.361744 -0.022390  0.342620
  0.580535  0.016817  0.623054
  0.366965  0.483351  0.841223
  0.586507  0.517655  1.122137
  0.015253  0.529952  0.728566
 -0.016243  0.479562  0.363257
  0.864790  0.010194 -0.157075
  1.083808  0.032036  0.125208
  0.410139  0.114590  0.518655
  0.409639  0.611752  1.026352
  0.016913  0.635672  0.525322
  0.907775  0.130384  0.033636
EA516
 1.0000000000000000
     4.421809    0.000000    0.000000
     0.004337    4.421807    0.000000
     0.015205   -0.041012    4.173351
 H   O  
   8   4
Direct
  0.826037  0.078171  0.966768
  1.166571  0.067526  0.902235
  0.326577  0.088887  0.480001
  0.666494  0.095157  0.411058
  0.667462  0.551536  0.821106
  0.416313  0.614715  1.071651
  0.829417  0.575528  0.472911
  1.170272  0.569796  0.407616
  0.984672 -0.055870  0.888212
  0.488165 -0.030619  0.383596
  0.557011  0.459745  0.997274
  0.988285  0.448243  0.382071
EA517
 1.0000000000000000
     4.448724    0.000000    0.000000
    -0.000566    4.448724   -0.000000
     0.010294   -0.018165    4.124440
 H   O  
   8   4
Direct
  0.680718  0.632607  0.378223
  0.720979  0.405820  0.101577
  0.238093  0.546127  0.584078
  0.254303  0.413357  0.929204
  0.858756  0.855317  0.821817
  1.070823  1.085309  0.985790
  0.358321  0.853861  0.321185
  0.571321  1.083336  0.484609
  0.569449  0.526284  0.210756
  0.146532  0.558856  0.798270
  0.940851  1.056943  0.798739
  0.440556  1.055422  0.298061
EA518
 1.0000000000000000
     4.418934    0.000000    0.000000
     0.001164    4.418934   -0.000000
     0.022248   -0.045747    4.178812
 H   O  
   8   4
Direct
  0.514822  0.493294  0.524168
  0.644170  0.291246  0.252085
 -0.136299  0.342701  0.645890
  0.069164  0.406254  0.932144
  0.502454  0.997731  1.023960
  0.637926  0.792061  0.759353
  0.011960  1.007384  0.474111
 -0.058700  0.788348  0.192719
  0.530172  0.476229  0.292367
  0.075647  0.347977  0.706998
  0.506663  0.966095  0.793344
  0.050539  0.972937  0.247209
EA519
 1.0000000000000000
     4.425561    0.000000    0.000000
     0.003256    4.425560    0.000000
     0.016966   -0.041343    4.167006
 H   O  
   8   4
Direct
  0.869825  0.167032  0.916859
  0.566678  0.126097  0.738800
  0.872670  0.666783  0.418113
  0.569038  0.626355  0.240523
  0.103024 -0.004631  0.510414
  0.237307  0.216688  0.263498
  0.288253  0.697405  0.966455
  0.033524  0.522647  0.793624
  0.751560  0.020548  0.795344
  0.753784  0.520413  0.296959
  0.081198  0.198704  0.427456
  0.073626  0.704827  0.918602
EA520
 1.0000000000000000
     4.429328    0.000000    0.000000
     0.002869    4.429328    0.000000
     0.013292   -0.033357    4.159341
 H   O  
   8   4
Direct
  0.594611  1.057031  0.104898
  0.797545  0.941419  0.378212
  0.253183  0.750352  0.541133
  0.251855  1.013073  0.788442
  0.048502  0.265283  0.195510
  0.150312  0.558964  0.037742
  0.769227  0.269071  0.667851
  0.849693  0.578438  0.530954
  0.672004  0.873157  0.200783
  0.361061  0.933159  0.603155
  0.226814  0.388407  0.159016
  0.938007  0.384769  0.584075
EA521
 1.0000000000000000
     4.419041    0.000000    0.000000
    -0.000211    4.419041    0.000000
     0.023485   -0.044265    4.178848
 H   O  
   8   4
Direct
  0.373443  0.594780  0.589738
  0.682115  0.747076  0.657272
  0.639088  0.041123  0.176552
  0.421244  0.293170  0.065778
 -0.124542  0.095999  0.589437
  0.184859  0.247038  0.655516
  0.132608  0.541065  0.178966
 -0.079916  0.797386  0.067599
  0.565601  0.647170  0.489848
  0.565584  0.143217 -0.013108
  0.067348  0.147699  0.488605
  0.064068  0.646749 -0.010540
EA522
 1.0000000000000000
     4.418999    0.000000    0.000000
     0.004706    4.418997    0.000000
     0.018233   -0.047762    4.178687
 H   O  
   8   4
Direct
  0.526506  0.623914  0.943517
  0.551712  0.453727  0.619692
 -0.022821  0.348787  0.391141
  0.197314  0.607466  0.303145
  0.288436  0.066035  0.476181
  0.602276  0.043290  0.638342
  0.907816  0.004314  0.220803
  0.973482  0.085131 -0.130573
  0.413802  0.494714  0.796905
 -0.015343  0.563457  0.341003
  0.453793 -0.073075  0.517573
  0.944340 -0.085635  0.010854
EA523
 1.0000000000000000
     4.418151    0.000000    0.000000
    -0.001541    4.418151   -0.000000
     0.029570   -0.052137    4.181492
 H   O  
   8   4
Direct
  0.706427  1.040794  0.218118
  0.968311  0.905417  0.413072
  0.304816  0.378980  0.046396
  0.329210  0.495093  0.394579
  0.406595  1.028251  0.940026
  0.093855  1.003919  0.777740
  0.908686  0.536850  0.944732
  0.597202  0.498120  0.782922
  0.873068  0.897518  0.204270
  0.421990  0.356667  0.240622
  0.272115  0.886349  0.831909
  0.779281  0.387972  0.839985
EA524
 1.0000000000000000
     4.412365   -0.000000    0.000000
    -0.001679    4.412365    0.000000
     0.033719   -0.059686    4.192658
 H   O  
   8   4
Direct
  0.225085  0.507188  0.950476
  0.571624  0.456325  0.960061
  0.220522  1.015448  0.454550
  0.564452  0.949370  0.461348
  0.848023  0.541105  0.549506
  0.953897  0.491106  0.200330
  0.849100  0.039216  1.046843
  0.953988 -0.007856  0.697085
  0.410618  0.532724  0.826273
  0.404570  1.024532  0.325294
  0.892206  0.647822  0.353264
  0.891702  0.147424  0.851296
EA525
 1.0000000000000000
     4.417376    0.000000    0.000000
    -0.000581    4.417376    0.000000
     0.026849   -0.049644    4.181864
 H   O  
   8   4
Direct
  0.291637  0.449833 -0.003027
  0.470151  0.589057  0.274515
  0.878301  0.692527  0.577026
  1.044147  0.426343  0.409101
  0.874897  0.191220  0.079707
  1.041790 -0.072391 -0.091536
  0.290783 -0.049938  0.496799
  0.469231  0.089866  0.774066
  0.497373  0.481951  0.071497
  1.004083  0.516845  0.618514
  1.002162  0.016156  0.118884
  0.496436 -0.019089  0.572137
EA526
 1.0000000000000000
     4.421000    0.000000    0.000000
     0.003472    4.420999    0.000000
     0.016177   -0.040599    4.174771
 H   O  
   8   4
Direct
  0.547873  0.313720  0.445142
  0.593415  0.648269  0.352514
 -0.010950  0.401355  0.605629
 -0.040112  0.366389  0.972123
  0.877860  0.867362  0.375931
  1.110184  1.025922  0.158128
  0.400989  0.879112  0.877356
  0.724991  1.005001  0.850954
  0.438579  0.500845  0.407320
  0.104506  0.353171  0.796404
  1.000055  1.049375  0.358705
  0.514315  1.058760  0.818351
EA527
 1.0000000000000000
     4.420217    0.000000    0.000000
     0.000934    4.420217    0.000000
     0.020007   -0.040834    4.176318
 H   O  
   8   4
Direct
  0.934764  0.386591 -0.116409
  0.918106  0.625100  0.154711
  0.388163  0.437507  0.308633
  0.341161  0.492202  0.670806
  0.374869  0.745128  1.105216
  0.522465  0.932609  0.836342
  0.808400  1.038002  0.473388
  1.021669  1.008119  0.763534
  1.015906  0.436183  0.093689
  0.487257  0.517952  0.498654
  0.384591  0.948180  1.017928
  0.978279  0.921714  0.553384
EA528
 1.0000000000000000
     4.418384    0.000000    0.000000
     0.000549    4.418384    0.000000
     0.023869   -0.047120    4.179888
 H   O  
   8   4
Direct
  0.535376  0.708250  0.879288
  0.729431  0.995775  0.835349
  0.530795  0.208830  0.379570
  0.728228  0.494199  0.336954
  0.281372  0.433477  0.654200
 -0.044885  0.318671  0.702314
  0.169617  0.790858  0.151123
 -0.049889  0.976305  0.365531
  0.562761  0.882045  0.741424
  0.560863  0.382312  0.241952
  0.094759  0.476058  0.770764
  0.151090  0.981006  0.268939
EA529
 1.0000000000000000
     4.418032    0.000000    0.000000
    -0.000577    4.418032   -0.000000
     0.025584   -0.047244    4.180585
 H   O  
   8   4
Direct
  0.611244  0.130176  0.912659
  0.362443  0.231208  0.684800
  0.612494  0.632653  0.412896
  0.366257  0.728881  0.179174
  0.947740  0.383153 -0.111328
  1.041695  0.510517  0.215187
  0.948860  0.883311  0.388544
  1.043122  1.011159  0.714755
  0.441870  0.270203  0.897851
  0.441873  0.770514  0.393294
  0.893286  0.537332  0.046594
  0.893451  1.036536  0.547138
EA530
 1.0000000000000000
     4.424863    0.000000    0.000000
     0.010814    4.424850    0.000000
     0.006343   -0.041822    4.167513
 H   O  
   8   4
Direct
  0.409365  0.363381  1.008052
  0.518596  0.695148  1.004231
  0.017094  0.696548  0.502905
 -0.085244  0.362973  0.503627
  0.462778  0.079772  0.318892
  0.470282 -0.018511  0.673530
  0.013033  0.192423  0.995927
 -0.086652 -0.142598  0.998209
  0.589353  0.487209  0.985949
  0.092445  0.490493  0.482879
  0.592814 -0.009859  0.479997
  0.089147 -0.013057  0.972537
EA531
 1.0000000000000000
     4.427888    0.000000    0.000000
     0.001290    4.427888    0.000000
     0.017549   -0.037082    4.162608
 H   O  
   8   4
Direct
  0.552308  0.987317  0.551060
  0.260919  0.794332  0.547611
  0.554614  0.492773  0.058143
  0.264251  0.299364  0.058061
  0.791392  0.220027  0.296756
  0.857508  0.559345  0.246247
  0.790667  0.722056  0.796532
  0.866540  1.060571  0.756734
  0.348853  0.979441  0.464143
  0.351982  0.482199 -0.030651
  0.902226  0.390535  0.386439
  0.906290  0.886752  0.891647
EA532
 1.0000000000000000
     4.419416   -0.000000    0.000000
     0.001041    4.419416    0.000000
     0.021457   -0.043850    4.177882
 H   O  
   8   4
Direct
  0.734334  0.567466  0.424226
  0.953915  0.834416  0.411661
  0.733194  0.068651  0.923858
  0.957335  0.331868  0.905946
  0.548475  0.084034  0.370507
  0.232497  0.067269  0.528875
  0.553170  0.587225  0.875376
  0.241580  0.581825  1.047155
  0.768686  0.767806  0.516174
  0.771474  0.269628  1.012311
  0.340870  0.022143  0.330588
  0.343653  0.525868  0.848214
EA533
 1.0000000000000000
     4.419006    0.000000    0.000000
    -0.000177    4.419006   -0.000000
     0.023348   -0.044102    4.178686
 H   O  
   8   4
Direct
  0.004463  0.729073  0.869178
  0.104795  0.927329  0.585396
  0.001745  0.226844  0.368877
  0.101938  0.428478  0.087786
  0.366267  0.315280  0.732174
  0.625754  0.136047  0.879985
  0.367186  0.815098  0.231927
  0.626829  0.635626  0.379127
  0.136960  0.730765  0.682630
  0.134855  0.231116  0.182956
  0.584117  0.320965  0.763406
  0.584835  0.821570  0.264495
EA534
 1.0000000000000000
     5.259897   -0.000000    0.000000
     0.000000    3.036717   -0.000000
    -0.877013    0.000000    5.109255
 H   O  
   8   4
Direct
  0.912290  0.658072  0.795673
  0.687969  0.339628  0.796906
  0.215235  0.182209  0.819700
  0.318490 -0.248896  0.726691
  0.266831  0.692935  0.170370
  0.121861  0.416372  0.344067
  0.779340 -0.048147  0.124117
  0.707198  0.085780  0.386212
  0.778441  0.502300  0.679621
  0.344975  0.066687  0.725809
  0.232608  0.390693  0.213363
  0.634762 -0.037633  0.217470
EA535
 1.0000000000000000
     5.363084   -0.000000   -0.000000
     0.000000    3.753414   -0.000000
     0.000000    0.000000    4.054134
 H   O  
   8   4
Direct
  0.674566  0.275961  0.567969
  0.705266  0.131212  0.218473
  0.778929  0.569493  0.957178
  0.857987  0.953013  0.888315
  0.418185  0.902938  0.662568
  0.276782  0.550684  0.642387
  0.198912  0.359280 -0.038958
  0.092494  0.137843  0.243721
  0.655878  0.342827  0.338558
  0.827374  0.727494  0.779506
  0.269324  0.796378  0.570045
  0.244304  0.252877  0.170237
EA536
 1.0000000000000000
     3.683478   -0.000000   -0.000000
     0.000000    7.366956   -0.000000
     0.000000    0.000000    3.007412
 H   O  
   8   4
Direct
  0.592665  0.329215  0.635032
  0.502896  0.177942  0.306094
  0.292413  0.775908  0.509829
  0.662159  0.684774  0.561589
  0.097568 -0.020133 -0.228158
 -0.108858 -0.033062  0.210791
  0.097568  0.520133 -0.228158
 -0.108858  0.533062  0.210791
  0.404438  0.242843  0.558874
  0.545429  0.789318  0.428582
  0.011290  0.053195  0.017367
  0.011290  0.446805  0.017367
EA537
 1.0000000000000000
     4.868756    0.000000    0.000000
    -2.434378    4.216467   -0.000000
     0.000000   -2.810978    3.975323
 H   O  
   8   4
Direct
  0.097957  0.227404  0.125302
 -0.002700 -0.186152 -0.120362
  0.597957  0.227404  0.625302
  0.497300 -0.186152  0.379638
  0.347957  0.727404  0.875302
  0.247300  0.313848  0.629638
  0.847957  0.727404  0.375302
  0.747300  0.313848  0.129638
 -0.095257 -0.041251 -0.004940
  0.404743 -0.041251  0.495060
  0.154743  0.458749  0.745060
  0.654743  0.458749  0.245060
EA538
 1.0000000000000000
     4.868756   -0.000000    0.000000
     0.000000    4.868756    0.000000
     2.434378   -2.434378    3.442731
 H   O  
   8   4
Direct
  0.655332  0.473357 -0.189373
  0.313429  0.600709  0.187459
  0.405332  0.223357  0.310627
  0.063429  0.350709  0.687459
  0.905332  0.723357  0.310627
  0.563429  0.850709  0.687459
  0.155332 -0.026643 -0.189373
 -0.186571  0.100709  0.187459
  0.531239  0.425935  0.001913
  0.281239  0.175935  0.501913
  0.781239  0.675935  0.501913
  0.031239 -0.074065  0.001913
EA539
 1.0000000000000000
     4.685049   -0.000000   -0.000000
    -0.909911    4.288057    0.000000
    -1.866547    1.401420    4.062229
 H   O  
   8   4
Direct
  0.573916  0.144678  0.657758
  0.709251 -0.163778  0.941004
  0.106229  1.129095  0.190070
  0.241564  0.820639  0.473317
  0.348438  0.644678 -0.067721
  0.483772  0.336222  0.215525
  0.831707  0.629095  0.415549
  0.967042  0.320639  0.698795
  0.627605  0.042474  0.893528
  0.159918  1.026892  0.425841
  0.402126  0.542474  0.168049
  0.885396  0.526892  0.651319
EA540
 1.0000000000000000
     4.417000    0.000000    0.000000
    -0.000617    4.417000    0.000000
     0.026860   -0.049628    4.181619
 H   O  
   8   4
Direct
  0.369733  0.363287  0.091488
  0.361346  0.677018  0.256836
  0.785594  0.561348  0.617004
  0.969674  0.279146  0.513449
  0.745864  0.068747  0.052387
  0.980899 -0.189185  0.070718
  0.300970  0.000567  0.479008
  0.426827  0.054991  0.817827
  0.487023  0.498029  0.227765
  0.968783  0.448769  0.663671
  0.917021 -0.002162  0.175707
  0.437807 -0.083440  0.635673
EA541
 1.0000000000000000
     4.417000    0.000000    0.000000
    -0.000617    4.417000    0.000000
     0.026860   -0.049628    4.181619
 H   O  
   8   4
Direct
  0.255556  0.579829  0.005146
  0.468463  0.462243  0.266632
  0.793283  0.621022  0.667352
  0.910876  0.330864  0.498441
  0.856655  0.080594  0.210454
  0.880313 -0.176385 -0.042104
  0.294509 -0.097277  0.536713
  0.456149  0.117894  0.773059
  0.390269  0.413559  0.055444
  0.947109  0.464450  0.680577
  0.985148 -0.085787  0.138877
  0.482066 -0.070585  0.653647
EA542
 1.0000000000000000
     4.422000    0.000000    0.000000
     0.004322    4.421998   -0.000000
     0.015226   -0.041029    4.173771
 H   O  
   8   4
Direct
  0.830635  0.066876  1.008067
  1.166514  0.094224  0.922829
  0.420101  0.204673  0.445043
  0.580258 -0.101469  0.477092
  0.612271  0.403869  0.836449
  0.603442  0.664850  1.084223
  0.960830  0.692845  0.489745
  1.127446  0.391992  0.442717
  1.007040 -0.054415  0.951823
  0.382712 -0.012708  0.432818
  0.498322  0.481190  1.019394
  0.924350  0.477429  0.456550
EA543
 1.0000000000000000
     4.417000    0.000000    0.000000
    -0.000617    4.417000    0.000000
     0.026860   -0.049628    4.181619
 H   O  
   8   4
Direct
  0.334701  0.313988  0.076567
  0.316110  0.657115  0.145743
  0.766592  0.635676  0.657456
  0.828324  0.360031  0.435893
  0.779255  0.105567  0.098022
  0.911421 -0.210659  0.020068
  0.410597 -0.105946  0.454515
  0.321193  0.074556  0.758428
  0.450632  0.483737  0.160334
  0.893806  0.457246  0.633390
  0.940851 -0.032587  0.155066
  0.466314 -0.072979  0.676481
EA544
 1.0000000000000000
     5.260000   -0.000000   -0.000000
     0.000000    3.037000   -0.000000
    -0.877016    0.000000    5.109276
 H   O  
   8   4
Direct
  0.920143  0.578960  0.881443
  0.688387  0.307923  0.940834
  0.206847  0.290476  0.975478
  0.239387 -0.147425  0.831726
  0.351242  0.719859  0.259255
  0.249100  0.406746  0.451889
  0.838769 -0.189071  0.215848
  0.774406  0.106802  0.436870
  0.737267  0.526012  0.820748
  0.256687  0.170133  0.817450
  0.202503  0.541418  0.280430
  0.708349  0.011986  0.259074
EA545
 1.0000000000000000
     5.260000   -0.000000   -0.000000
     0.000000    3.037000   -0.000000
    -0.877016    0.000000    5.109276
 H   O  
   8   4
Direct
  0.882583  0.716849  0.709093
  0.764800  0.443945  0.910972
  0.243481  0.010179  0.932711
  0.263727 -0.412878  0.770848
  0.331070  0.655136  0.291853
  0.161330  0.348457  0.427516
  0.828686 -0.060721  0.311907
  0.620826  0.235725  0.397363
  0.747794  0.503541  0.724446
  0.238247 -0.096176  0.754908
  0.159532  0.525952  0.271325
  0.650071  0.030968  0.261272
EA546
 1.0000000000000000
     4.841030    0.000000   -0.000000
     0.000005    4.841030   -0.000000
     2.372190   -2.372613    3.482782
 H   O  
   8   4
Direct
 -0.070690  0.272080  0.671427
  0.049964  0.532811  0.588959
  0.430833  0.774390  0.674368
  0.548642  1.037746  0.595992
  0.180281  0.528048  0.177609
  0.296813  0.792601  0.100889
  0.703704  0.002352  0.157194
  0.793789  0.270310  0.072880
  0.130031  0.324212  0.548991
  0.630747  0.824416  0.545035
  0.379709  0.580387  0.051958
  0.891628  0.057699  0.013674
EA547
 1.0000000000000000
     4.418811   -0.000000    0.000000
    -0.000198    4.418811    0.000000
     0.023672   -0.044643    4.178977
 H   O  
   8   4
Direct
  0.720077  0.428226  0.504499
  0.924124  0.158667  0.593976
  0.443356  0.385997  0.134669
  0.121644  0.299996  0.025642
  0.442249  0.881927  0.633184
  0.117639  0.797789  0.532344
  0.719413  0.927919  0.005984
  0.923191  0.658120  0.095433
  0.720808  0.209357  0.525037
  0.311298  0.213552  0.097977
  0.307692  0.710450  0.602309
  0.720637  0.708832  0.024039
EA548
 1.0000000000000000
     4.418991    0.000000    0.000000
     0.004501    4.418988    0.000000
     0.018362   -0.047614    4.178690
 H   O  
   8   4
Direct
  0.270024  0.731234  0.505317
  0.280263  0.519115  0.209169
  0.900569  0.097661  0.410882
  0.608188  0.285653  0.447926
  0.874558  0.534175  0.959675
  0.536888  0.611723  0.913794
  0.007715  0.975979  1.032925
  0.321848  1.019150  0.889414
  0.152067  0.664254  0.322051
  0.706655  0.135962  0.310562
  0.688169  0.457183  0.867030
  0.117134  0.961240  0.831004
EA549
 1.0000000000000000
     4.420901    0.000000    0.000000
     0.008792    4.420892   -0.000000
     0.010830   -0.045112    4.175840
 H   O  
   8   4
Direct
  0.506579  0.065875  0.507960
  0.616932  0.279710  0.777727
  0.442848  0.859157  0.172048
  0.483834  0.521802  0.231814
 -0.043323  0.872275  0.610724
  0.005135  0.622705  0.860272
 -0.139248  0.280784  0.270949
  0.185741  0.193286  0.370105
  0.498852  0.097696  0.738633
  0.558262  0.718336  0.301289
  0.113708  0.765202  0.727006
  0.072207  0.308300  0.213240
EA550
 1.0000000000000000
     4.419660    0.000000    0.000000
     0.000100    4.419660    0.000000
     0.021841   -0.041996    4.177412
 H   O  
   8   4
Direct
 -0.108881  0.796194  0.298917
  0.101473  0.679577  0.559994
  0.365286  0.792565  0.801085
  0.692026  0.800248  0.931456
  0.830476  0.163491  1.023346
  0.632706  0.351082  0.794841
  0.107351  0.254706  0.389188
  0.453528  0.295895  0.371603
  0.062415  0.856434  0.430212
  0.499686  0.907178  0.940995
  0.841830  0.307549  0.849615
  0.265111  0.364374  0.276919
EA551
 1.0000000000000000
     4.832616    0.000000    0.000000
     0.000007    4.832616   -0.000000
     2.352949   -2.353504    3.494913
 H   O  
   8   4
Direct
  0.333907  0.407206  0.449285
  0.550970  0.574550  0.587627
  0.834320  0.905752  0.445974
  1.054488  1.070139  0.580978
  0.588268  0.626806  0.935966
  0.807779  0.814993  1.057629
  0.083982  0.161093 -0.047496
  0.299829  0.329818  0.092205
  0.514419  0.361295  0.472330
  1.009572  0.859710  0.476271
  0.782150  0.595059  0.943999
  0.262066  0.116621 -0.020407
EA552
 1.0000000000000000
     4.420236    0.000000    0.000000
     0.000997    4.420236   -0.000000
     0.019911   -0.040829    4.176280
 H   O  
   8   4
Direct
  0.726223  0.498912  0.117011
  0.755761  0.222203  0.331793
  0.620629  0.937051  0.823701
  0.937275  1.045050  0.916997
  0.164906  0.519087  0.593991
  0.380886  0.266982  0.708453
  0.197901  0.793108  0.117860
  0.198657  1.092826  0.309819
  0.865096  0.401848  0.263531
  0.832842  0.914834  0.764804
  0.319985  0.475019  0.752114
  0.297141  0.896693  0.294942
EA553
 1.0000000000000000
     4.427412    0.000000    0.000000
     0.017074    4.427379   -0.000000
    -0.002914   -0.041259    4.162878
 H   O  
   8   4
Direct
  0.572059  0.046404  0.940465
  0.361612  0.242688  0.730367
 -0.064392  0.545472  1.048589
  0.097695  0.742380  0.803378
  0.313771  0.704062  0.479829
  0.578382  0.542427  0.308628
  1.109536  0.063448  0.484301
  0.821191  0.065246  0.281631
  0.543309  0.118387  0.721930
 -0.031354  0.755476  0.991739
  0.412750  0.682529  0.272370
  1.027557  0.140661  0.284608
EA554
 1.0000000000000000
     4.420659    0.000000    0.000000
     0.002368    4.420659    0.000000
     0.017843   -0.040702    4.175444
 H   O  
   8   4
Direct
  0.825925  0.576590  1.117936
  0.859769  0.385745  0.812123
  0.826310  0.075968  0.623657
  0.860811 -0.113723  0.317242
  0.326239  0.075672  1.123721
  0.360742 -0.113780  0.817145
  0.326017  0.575043  0.618726
  0.359804  0.385620  0.311969
  0.956455  0.548877  0.931596
  0.957380  0.048963  0.437549
  0.457382  0.048721  0.937665
  0.456482  0.548284  0.432158
EA555
 1.0000000000000000
     3.760604    0.000000    0.000000
     0.002188    6.882848    0.000000
     0.001082   -0.005012    3.152256
 H   O  
   8   4
Direct
  0.803323 -0.042795  0.268830
  0.650959  0.010623  0.709418
 -0.012084  0.725778  0.796974
  0.321532  0.797594  1.036219
  0.487204  0.429137  1.093054
  0.816299  0.452899  0.816380
  0.246077  0.110351  0.929218
 -0.069076  0.238234  1.079750
  0.667542  0.056424  0.418136
  0.226206  0.685735  0.883979
  0.659170  0.525991  1.002314
  0.046584  0.187715  0.826878
EA556
 1.0000000000000000
     5.016916    0.000000    0.000000
     0.000000    3.301202    0.000000
    -0.144688   -0.526062    4.928149
 H   O  
   8   4
Direct
  0.834461  0.838104  0.296004
  1.124696  0.972347  0.359253
  0.334137  0.342897  0.297297
  0.624961  0.475363  0.357689
  0.046693  1.034416  0.964266
  0.242014  0.884416  0.740304
  0.688925  0.560505  0.910519
  0.538566  0.171482  0.787689
  0.941808  1.062745  0.381803
  0.442784  0.562386  0.388092
  0.177611  0.823870  0.914864
  0.574809  0.341739  0.957193
EA557
 1.0000000000000000
     4.420000    0.000000    0.000000
     0.000231    4.420000    0.000000
     0.021069   -0.040899    4.176747
 H   O  
   8   4
Direct
  0.771765  0.541721  0.333560
  1.040653  0.694643  0.168872
  0.274986  0.537301  0.835243
  0.541082  0.692392  0.668612
  0.817935  0.005111  0.794509
  1.054151  0.208730  0.954526
  0.319589  0.001168  0.296526
  0.550165  0.211289  0.455615
  0.841140  0.611406  0.125237
  0.338280  0.615758  0.628559
  0.839823  0.199736  0.903205
  0.336329  0.197173  0.403397
EA558
 1.0000000000000000
     4.419123    0.000000    0.000000
     0.000475    4.419123   -0.000000
     0.021983   -0.043396    4.178175
 H   O  
   8   4
Direct
  0.802224  0.627879  0.793080
  0.780812  0.326877  0.975059
  0.417926  0.421382  0.380169
  0.116839  0.537399  0.241044
  0.418317  0.922075  0.880315
  0.117412  1.038391  0.741093
  0.806601  1.128412  0.285826
  0.782457  0.831671  0.475012
  0.660167  0.472258  0.858118
  0.204099  0.372937  0.362662
  0.204903  0.872631  0.860524
  0.662863  0.976308  0.355870
EA559
 1.0000000000000000
     4.447343    0.000000    0.000000
     0.000583    4.447343    0.000000
     0.849286   -0.862565    4.125982
 H   O  
   8   4
Direct
  0.482948 -0.025865  0.905613
  0.497206  0.068574  0.581178
  0.054914  0.429678  0.760435
  0.141935  0.766670  0.763882
  0.252052  0.770958  0.210403
  0.380835  0.501863  0.326078
  0.753954  0.273574  0.210704
  0.881194  0.002390  0.323987
  0.589160  0.109114  0.771642
  0.006222  0.638550  0.883260
  0.435468  0.696889  0.266261
  0.934123  0.201196  0.274069
EA560
 1.0000000000000000
     4.421632    0.000000    0.000000
     0.003254    4.421630    0.000000
     0.017308   -0.042008    4.173489
 H   O  
   8   4
Direct
  0.753157  0.928387  0.457638
  0.843339  0.597306  0.527465
  0.755859  0.432539  0.963885
  0.843706  0.102005  1.036232
  0.126813  0.766124  0.963144
  0.471130  0.769393  1.024941
  0.341517  0.102246  0.542834
  0.252832  0.431284  0.462531
  0.812700  0.739455  0.353862
  0.818397  0.243850  0.861586
  0.321597  0.744264  0.856625
  0.316633  0.240587  0.365158
EA561
 1.0000000000000000
     4.515905    0.000000    0.000000
     0.008053    4.515897    0.000000
     1.290840   -1.313190    4.001907
 H   O  
   8   4
Direct
  0.728236  0.117175  0.752165
  0.538340  0.428985  0.973362
  0.978026  0.361862  0.247115
  0.789157  0.673922  0.469095
  0.172813  0.584664  0.892586
  0.035648  0.921593  1.102127
  0.478532 -0.139404  0.243760
  0.292109  0.173638  0.467465
  0.668255  0.260261  0.978243
  0.921068  0.506156  0.472499
  0.055640  0.763985  0.889227
  0.416692  0.000256  0.471465
EA562
 1.0000000000000000
     4.481948   -0.000000    0.000000
    -0.000318    4.481949    0.000000
     1.126916   -1.138496    4.062249
 H   O  
   8   4
Direct
  0.884836  0.506482  0.148026
  0.542147  0.513916  0.338134
  0.886221  0.012216  0.641993
  0.545921  0.015238  0.837341
  0.133102  0.827886  0.277808
  0.287046  0.560226 -0.027473
  0.865988  0.579486  0.806597
  1.038510  0.337494  0.489432
  0.731892  0.616413  0.348234
  0.735452  0.118734  0.845510
  0.332546  0.741064  0.127905
  1.069296  0.518388  0.653858
EA563
 1.0000000000000000
     4.423918    0.000000    0.000000
     0.010517    4.423906    0.000000
     0.007117   -0.042473    4.168996
 H   O  
   8   4
Direct
 -0.130461  0.550432  0.437257
  0.204221  0.626269  0.509691
  0.569410  0.095807  0.188376
  0.567330  0.082304  0.558260
  0.542024  0.718740  0.700003
  0.521660  0.482874  0.970673
 -0.109874  0.033267  0.958761
  0.209502  0.050440  0.819321
  0.060519  0.460233  0.501792
  0.669322  0.176563  0.378058
  0.464819  0.688578  0.916751
  0.098685 -0.019980  1.006092
EA564
 1.0000000000000000
     4.420552    0.000000    0.000000
    -0.000477    4.420552    0.000000
     0.524417   -0.542074    4.175349
 H   O  
   8   4
Direct
  0.485214  0.374163  1.009423
  0.572204  0.492002  0.683425
  0.124070  1.060001  0.919896
 -0.116778  0.807770  0.921917
  0.352666  0.925450  0.280853
  0.293120  0.618721  0.409420
  0.854135  0.427240  0.280936
  0.791806  0.120289  0.407746
  0.444149  0.345945  0.787854
 -0.003156  0.938255  0.783215
  0.454557  0.740320  0.315205
  0.955318  0.244412  0.322814
EA565
 1.0000000000000000
     5.094839   -0.000000   -0.000000
     0.000000    5.094839   -0.000000
     0.000000    0.000000    3.143969
 H   O  
   8   4
Direct
 -0.103225  0.147381  0.459546
  0.120086  0.318295  0.627007
  0.852619  0.103225 -0.040454
  0.681705 -0.120086  0.127007
  0.126475  0.693592  0.376458
 -0.103986  0.721453  0.683373
  0.306408 -0.126475 -0.123542
  0.278547  0.103986  0.183373
 -0.016862  0.314324  0.413447
  0.685676  0.016862 -0.086553
 -0.022489  0.804956  0.440169
  0.195044  0.022489 -0.059831
EA566
 1.0000000000000000
     2.732497   -0.000000   -0.000000
     0.000000    2.732497   -0.000000
     0.000000    0.000000   10.929988
 H   O  
   8   4
Direct
 -0.255436  0.047891  0.031386
  0.206296  0.074091 -0.046941
  0.239439 -0.140951  0.269533
 -0.255287  0.118106  0.266168
  0.027906  0.210500  0.548871
 -0.129597 -0.239526  0.476107
 -0.197334  0.171819  0.719545
  0.193660 -0.213283  0.745605
  0.049140 -0.121981  0.015555
  0.015848  0.022845  0.214299
  0.101691  0.029027  0.475023
  0.003674  0.041464  0.784850
EA567
 1.0000000000000000
     2.938867   -0.000000    0.000000
     0.000000    9.625379   -0.000000
    -0.560259    0.000000    2.884970
 H   O  
   8   4
Direct
 -0.141689  0.065335  0.291507
  0.071401  0.210258  0.305535
  0.141689  0.934665  0.708493
 -0.071401  0.789742  0.694465
  0.511678  0.585129  0.032898
  0.539870  0.703978  0.381016
  0.488322  0.414871  0.967102
  0.460130  0.296022  0.618984
  0.070287  0.121036  0.152958
 -0.070287  0.878964  0.847042
  0.448452  0.607523  0.336086
  0.551548  0.392477  0.663914
EA568
 1.0000000000000000
     3.910758   -0.000000    0.000000
     0.000000    3.910758    0.000000
     0.000000    0.000000    5.336019
 H   O  
   8   4
Direct
  1.098566  0.462821  0.550804
  0.904958  0.627009  0.333516
  0.598566  0.962821  0.550804
  0.404958  1.127009  0.333516
  0.098566  0.462821  1.050804
 -0.095042  0.627009  0.833516
  0.598566 -0.037179  1.050804
  0.404958  0.127009  0.833516
  0.996476  0.410170  0.390001
  0.496476  0.910170  0.390001
 -0.003524  0.410170  0.890001
  0.496476 -0.089830  0.890001
EA569
 1.0000000000000000
     4.337569   -0.000000   -0.000000
     0.000000    4.337569   -0.000000
     0.000000    0.000000    4.337569
 H   O  
   8   4
Direct
  0.097825  0.306328  0.332028
  0.427719  0.211818  0.254099
  0.097825  0.806328  0.832028
  0.427719  0.711818  0.754099
  0.597825  0.306328  0.832028
  0.927719  0.211818  0.754099
  0.597825  0.806328  0.332028
  0.927719  0.711818  0.254099
  0.224456  0.231854  0.163874
  0.224456  0.731854  0.663874
  0.724456  0.231854  0.663874
  0.724456  0.731854  0.163874
EA570
 1.0000000000000000
     4.821981   -0.000000   -0.000000
     2.256715    4.261308    0.000000
     0.308552   -2.717041    3.971648
 H   O  
   8   4
Direct
  0.096555  0.995953  0.914641
  0.371333  0.896107  0.639267
  0.846555  0.495953  0.664641
  1.121333  0.396107  0.389267
  0.596555 -0.004047  0.414641
  0.871333 -0.103893  0.139267
  0.346555  0.495953  0.164641
  0.621333  0.396107 -0.110733
  0.157021  1.107941  0.821183
  0.907021  0.607941  0.571183
  0.657021  0.107941  0.321183
  0.407021  0.607941  0.071183
EA571
 1.0000000000000000
     4.427000    0.000000   -0.000000
     0.017076    4.426967    0.000000
    -0.002906   -0.041258    4.162795
 H   O  
   8   4
Direct
  0.548572  0.090139  0.897114
  0.447343  0.383587  0.727320
  0.100237  0.576944  0.947720
  0.263734  0.869575  0.845252
  0.454639  0.645483  0.450355
  0.739210  0.516627  0.282468
  1.277116  0.192617  0.438464
  0.993480  0.012610  0.336874
  0.607802  0.232592  0.732987
  0.137944  0.705591  0.764404
  0.604316  0.690602  0.286927
  1.091949  0.207329  0.313617
EA572
 1.0000000000000000
     4.419000    0.000000    0.000000
    -0.000231    4.419000   -0.000000
     0.023704   -0.044636    4.178694
 H   O  
   8   4
Direct
  0.773744  0.399603  0.589778
  0.847941  0.183795  0.866489
  0.432463  0.458615  0.126978
  0.108772  0.577421  0.154585
  0.309024  0.889467  0.621269
 -0.015419  0.770453  0.625704
  0.635682  0.897398 -0.074462
  0.904261  0.909559  0.159848
  0.727072  0.200247  0.673843
  0.223088  0.391659  0.122449
  0.193275  0.703890  0.643730
  0.711664  0.809487  0.122009
EA573
 1.0000000000000000
     4.422000   -0.000000   -0.000000
     0.003241    4.421999    0.000000
     0.017338   -0.042046    4.173752
 H   O  
   8   4
Direct
  0.712138  0.891921  0.278016
  0.778121  0.675904  0.553761
  0.762645  0.421880  0.810870
  0.752363  0.160678  1.047932
  0.072469  0.759230  0.930877
  0.416485  0.759162  0.963823
  0.259161  0.086588  0.452904
  0.259222  0.432330  0.451488
  0.777981  0.686354  0.320764
  0.757106  0.202346  0.819394
  0.257231  0.761237  0.804060
  0.258652  0.257622  0.308285
EA574
 1.0000000000000000
     4.417000    0.000000    0.000000
    -0.000617    4.417000    0.000000
     0.026860   -0.049628    4.181619
 H   O  
   8   4
Direct
  0.263560  0.529783 -0.032585
  0.352505  0.712545  0.268615
  0.747105  0.727867  0.659154
  0.927499  0.446658  0.545390
  0.742952  0.262147  0.141990
  0.895330 -0.027742  0.007773
  0.259996  0.039173  0.457520
  0.394290  0.203357  0.751494
  0.430074  0.565863  0.113579
  0.938068  0.622425  0.686969
  0.883288  0.101754  0.196984
  0.409924  0.018068  0.624674
EA575
 1.0000000000000000
     4.417000    0.000000    0.000000
    -0.000617    4.417000    0.000000
     0.026860   -0.049628    4.181619
 H   O  
   8   4
Direct
  0.266982  0.638725  0.029530
  0.467806  0.696798  0.323918
  0.754473  0.717115  0.610107
  0.877639  0.424326  0.451161
  0.759956  0.180256  0.130855
  0.911192 -0.110056 -0.003795
  0.248323  0.110385  0.545084
  0.425439  0.227468  0.838009
  0.409552  0.540607  0.170613
  0.901974  0.556293  0.636889
  0.949984  0.069274  0.126552
  0.433915  0.079953  0.663800
EA576
 1.0000000000000000
     4.320000   -0.000000   -0.000000
     0.000000    4.320000   -0.000000
     0.000000    0.000000    4.373000
 H   O  
   8   4
Direct
  0.591753  0.799482  0.430937
  0.944871  0.775466  0.439062
  0.104835  0.280840  0.629498
  0.443171  0.287240  0.527059
  0.611944  0.283774  1.032759
  0.961452  0.283969  1.087930
  0.099142  0.785538  1.015089
  0.404772  0.784045  0.838817
  0.771070  0.780869  0.297046
  0.233027  0.283178  0.446092
  0.808798  0.283397  0.923829
  0.181381  0.784645  0.807599
EA577
 1.0000000000000000
     4.433000    0.000000    0.000000
    -0.001006    4.433000   -0.000000
     0.018488   -0.032621    4.153831
 H   O  
   8   4
Direct
  0.392774  0.273210  0.288024
  0.529047  0.117406  0.584527
  0.693848  0.573556  0.265709
  0.974485  0.768185  0.339783
  0.892160  0.253166  0.761935
  1.020421  0.092167  1.059203
  0.194570  0.619169  0.749644
  0.477017  0.783221  0.879188
  0.373910  0.095020  0.421101
  0.855408  0.600916  0.420882
  0.837785  0.114667  0.932615
  0.374909  0.589238  0.878020
EA578
 1.0000000000000000
     4.433000    0.000000    0.000000
    -0.001006    4.433000   -0.000000
     0.018488   -0.032621    4.153831
 H   O  
   8   4
Direct
  0.325375  0.265327  0.230804
  0.477023  0.108119  0.517788
  0.763568  0.671001  0.265703
  1.054007  0.748463  0.453011
  0.840413  0.268838  0.742147
  0.985575  0.124442  1.040328
  0.257555  0.626487  0.770940
  0.549250  0.750124  0.925388
  0.297675  0.102939  0.383671
  0.903424  0.591467  0.423553
  0.847775  0.082848  0.863814
  0.378742  0.617586  0.965250
EA579
 1.0000000000000000
     4.420834    0.000000    0.000000
     0.001486    4.420833    0.000000
     0.019513   -0.041378    4.175498
 H   O  
   8   4
Direct
  0.657557  0.099542  0.565135
  0.743616  0.371150  0.780581
  0.492937  0.651102  0.151691
  0.784451  0.782404  0.002208
 -0.040389  0.806015  0.447404
  0.168409  0.902728  0.174370
  0.085022  0.506551  0.901274
  0.042734  0.198201  0.738590
  0.597240  0.304645  0.621356
  0.612651  0.835799  0.137749
  0.170505  0.803061  0.380779
  0.170199  0.303798  0.892259
EA580
 1.0000000000000000
     4.420752    0.000000    0.000000
     0.002279    4.420751   -0.000000
     0.019708   -0.043934    4.175714
 H   O  
   8   4
Direct
  0.052920  0.066750  0.144024
  0.203095  0.361092  0.028604
  0.755455  0.144296  0.521835
  0.411760  0.167483  0.585825
  0.755766  0.644790  0.021648
  0.411995  0.667352  0.085210
  0.058709  0.568980  0.645887
  0.201311  0.865728  0.527391
  0.009525  0.276016  0.092459
  0.586745  0.285378  0.520951
  0.587068  0.785854  0.021820
  0.010034  0.776710  0.592737
EA581
 1.0000000000000000
     4.716475    0.000000   -0.000000
    -0.000241    3.786862   -0.000000
    -0.059412   -0.289690    4.568619
 H   O  
   8   4
Direct
  1.097307  0.421274  0.133167
  0.891662  0.733975  0.184915
  0.155607  1.028092  0.842406
  0.048824  0.838586  0.554004
  0.604427 -0.077066  0.127865
  0.387824  0.224071  0.175922
  0.614502  0.505903  0.565226
  0.598080  0.275880  0.831350
  0.920194  0.488064  0.226630
  0.078061  0.804950  0.760951
  0.421817 -0.021525  0.214667
  0.553814  0.275585  0.623380
EA582
 1.0000000000000000
     4.421505    0.000000    0.000000
     0.002950    4.421505    0.000000
     0.017153   -0.040943    4.174504
 H   O  
   8   4
Direct
  0.273574  0.376706  0.691678
  0.546266  0.590029  0.741077
  0.773242  0.375020  0.189565
  1.044897  0.589732  0.239310
  0.274770  0.876076  0.196321
  0.548741  1.088509  0.241469
  0.773640  0.875141  0.689492
  1.045382  1.089595  0.739952
  0.477137  0.384607  0.778514
  0.976819  0.383858  0.276366
  0.479846  0.883033  0.279071
  0.977099  0.883724  0.776631
EA583
 1.0000000000000000
     4.421285    0.000000    0.000000
     0.001642    4.421285    0.000000
     0.019373   -0.041557    4.174819
 H   O  
   8   4
Direct
 -0.001806  0.794465  0.535435
  0.180847  0.522364  0.648892
  0.548420  0.072266  0.448266
  0.634795  0.247019  0.751875
  0.681621  0.523300  0.166888
  0.500172  0.795943  0.052834
 -0.003923  0.293823  0.022856
  0.175851  0.025041  0.151158
  0.199278  0.705947  0.523480
  0.700266  0.210230  0.532363
  0.701116  0.707019  0.042353
  0.198584  0.207803  0.024921
EA584
 1.0000000000000000
     4.417739    0.000000    0.000000
     0.002954    4.417739    0.000000
     0.202732   -0.225526    4.181902
 H   O  
   8   4
Direct
  0.880812  0.586307  0.539119
  0.894005  0.362385  0.247706
  0.233488 -0.086290  0.452732
  0.543580  0.037930  0.349362
  0.949918 -0.087861  0.978030
  1.102151  0.132023  0.748335
  0.448372  0.389137  0.989113
  0.544094  0.666948  0.805847
  0.825141  0.565695  0.317533
  0.328052  0.069487  0.326962
  0.915389  0.021526  0.788856
  0.368816  0.544085  0.859777
EA585
 1.0000000000000000
     4.417000    0.000000   -0.000000
    -0.000617    4.417000    0.000000
     0.026860   -0.049628    4.181619
 H   O  
   8   4
Direct
  0.452916 -0.069325  0.283761
  0.580467  0.134432  0.552694
  0.434505  0.286948  0.968509
  0.465698  0.623086  0.891934
  0.979709 -0.166032  0.000060
  0.924645  0.177704 -0.020027
  0.978725  0.330802  0.504464
  0.922389  0.673845  0.475543
  0.606745 -0.061922  0.448689
  0.585970  0.443011  0.934532
  1.023546  0.024804  0.107889
  1.022271  0.524271  0.606987
EA586
 1.0000000000000000
     4.425452    0.000000    0.000000
     0.012808    4.425434   -0.000000
     0.003323   -0.041514    4.166176
 H   O  
   8   4
Direct
  0.130642  0.637443  0.134065
  0.032449  0.327559  0.008010
 -0.083113  1.025881  0.604426
  0.247801  0.935736  0.556825
  0.621596  0.719363  0.653469
  0.534684  0.524383  0.358068
  0.571306  0.194663 -0.121765
  0.429417  0.169335  0.217024
  0.081202  0.530058 -0.063492
  0.079034  1.030189  0.446901
  0.479786  0.565974  0.580319
  0.439102  0.070145  0.007521
EA587
 1.0000000000000000
     4.419000    0.000000    0.000000
     0.000509    4.419000    0.000000
     0.022867   -0.045110    4.178693
 H   O  
   8   4
Direct
  0.486969  0.088459  0.430812
  0.229591  0.304655  0.521031
  0.532474  0.835346  0.873683
  0.257360  0.679291  1.031115
  0.944433  0.936695  0.580081
  0.766623  0.939065  0.267782
  0.944637  0.437791  1.078795
  0.766542  0.440031  0.766715
  0.318516  0.112014  0.579665
  0.409222  0.653075  0.863699
  0.962308  0.883817  0.354494
  0.962328  0.384824  0.853215
EA588
 1.0000000000000000
     4.328613    0.000000    0.000000
    -0.000055    4.328613    0.000000
     0.002538   -0.004689    4.355481
 H   O  
   8   4
Direct
  0.629459  0.383847  0.735753
  0.669596  0.464824  0.393401
  0.629869  0.882448  0.233835
  0.672893  0.971209 -0.106058
  0.217321  0.376228  0.465725
  0.173700  0.251325  0.140126
  0.220482  0.876812  0.962862
  0.176776  0.752195  0.637187
  0.744330  0.517081  0.597391
  0.745138  1.019652  0.099695
  0.212492  0.442533  0.251987
  0.215705  0.943283  0.749237
EA589
 1.0000000000000000
     4.417489    0.000000    0.000000
     0.000537    4.417489    0.000000
     0.024895   -0.049080    4.180900
 H   O  
   8   4
Direct
  0.232908  0.178063  0.372432
  0.212287  0.406698  0.653081
  0.089155  0.558969  0.047462
  0.210841  0.876432 -0.017406
  0.526108  0.886607  0.506447
  0.845601  0.958494  0.623161
  0.521437  0.240485  0.070954
  0.647792  0.556341 -0.016441
  0.260496  0.196789  0.602167
  0.251742  0.696009  0.107455
  0.642653  0.915010  0.701134
  0.616075  0.420583  0.162338
EA590
 1.0000000000000000
     4.420000   -0.000000    0.000000
     0.000943    4.420000    0.000000
     0.019993   -0.040834    4.176753
 H   O  
   8   4
Direct
  0.735457  0.702522  0.977059
  0.822016  1.017374  0.847785
  0.151586  0.787961  0.527669
  0.406994  0.988218  0.392484
  0.285948  0.211445  1.078437
  0.124751  0.493303  0.944391
  0.918888  0.329854  0.558139
  0.633469  0.446554  0.388022
  0.682890  0.849722  0.814032
  0.299999  0.798788  0.355674
  0.312213  0.378263  0.929774
  0.796381  0.299241  0.368139
EA591
 1.0000000000000000
     4.883662    0.000000    0.000000
    -0.000156    3.508917    0.000000
    -0.108056   -0.415618    4.762672
 H   O  
   8   4
Direct
  0.412663  1.036802  0.764623
  0.263690  0.654358  0.785556
  0.914023  0.544188  0.781475
  0.762494  0.160493  0.788112
  0.674312  1.079259  0.198769
  0.762273  0.914859  0.476273
  0.296157  0.649684  0.383343
  0.201386  0.238975  0.422786
  0.282253  0.911535  0.876678
  0.777185  0.415846  0.883529
  0.666171  0.849540  0.298425
  0.193213  0.435594  0.291391
EA592
 1.0000000000000000
     4.419647    0.000000    0.000000
     0.001724    4.419647    0.000000
     0.020123   -0.043273    4.177431
 H   O  
   8   4
Direct
  0.537766  0.809192  0.295028
  0.575502  1.123718  0.453001
  0.470630  0.461892  0.617959
  0.604993  0.401303  0.952012
  1.154383  0.440383  0.222612
  0.871229  0.642738  0.178318
  1.154933 -0.053521  0.728704
  0.861610  0.132708  0.678407
  0.658990  0.992211  0.286372
  0.588261  0.555895  0.789006
  0.955025  0.484426  0.312345
  0.957175 -0.009959  0.822397
EA593
 1.0000000000000000
     4.352644   -0.000000   -0.000000
    -0.000403    4.352644    0.000000
     0.007880   -0.013914    4.307438
 H   O  
   8   4
Direct
  0.891479  0.083226  0.851436
  1.073336  0.262571  1.095405
  0.890125  0.585956  0.349934
  1.078630  0.763737  0.589993
  0.394811  0.583889  0.848763
  0.576297  0.763399  1.092842
  0.391576  0.083238  0.351522
  0.573152  0.262496  0.595749
  0.903039  0.284511  0.950569
  0.907575  0.787958  0.446435
  0.406150  0.785164  0.947781
  0.403080  0.284512  0.450666
EA594
 1.0000000000000000
     4.421677    0.000000    0.000000
     0.002992    4.421677    0.000000
     0.017950   -0.042534    4.174259
 H   O  
   8   4
Direct
  0.576316  0.440092  0.513555
  0.281082  0.626470  0.531678
  0.575904 -0.060324  0.013774
  0.281017  0.126643  0.032212
  0.842850 -0.015232  0.631168
  1.115001  0.150161  0.481504
  0.847980  0.485407  0.133556
  1.114610  0.655701 -0.020452
  0.492483  0.638256  0.468193
  0.492090  0.137659 -0.032628
  0.902740  0.175751  0.537164
  0.902516  0.677130  0.037660
EA595
 1.0000000000000000
     4.419121    0.000000    0.000000
    -0.000017    4.419121   -0.000000
     0.022762   -0.043452    4.178174
 H   O  
   8   4
Direct
  0.723276  0.651972  0.064006
  0.735204  0.332643  0.208740
  0.055729  0.638285  0.701775
  0.238896  0.340985  0.720543
  0.065092 -0.057148  0.128871
  0.400095  0.040870  0.118499
  0.528238  0.088809  0.605370
  0.860121 -0.015622  0.565439
  0.716731  0.545870  0.266334
  0.254762  0.558577  0.755065
  0.219867  0.046082  0.253237
  0.678479 -0.048732  0.692847
EA596
 1.0000000000000000
     4.420521    0.000000    0.000000
    -0.000067    4.420522   -0.000000
     0.021549   -0.041032    4.175959
 H   O  
   8   4
Direct
  0.651747  0.530490  0.329755
  0.939625  0.339721  0.342106
  0.218266  0.347824  0.965827
  0.360647  0.520124  0.686511
  0.226730  0.840010  0.465447
  0.361554  1.023925  0.191320
  0.862416  1.024743  0.709137
  0.728256  0.841702  0.984248
  0.847757  0.520959  0.433450
  0.347247  0.520374  0.919403
  0.345683  1.020496  0.423846
  0.847886  1.021471  0.941496
EA597
 1.0000000000000000
     2.796374   -0.000000   -0.000000
     0.000000   10.436348   -0.000000
     0.000000    0.000000    2.796374
 H   O  
   8   4
Direct
  0.594651  0.117136  0.258109
  0.299347  0.160841 -0.171008
  0.094651  0.617136 -0.258109
 -0.200653  0.660841  0.171008
  0.094651  0.382864  0.258109
 -0.200653  0.339159 -0.171008
  0.594651  0.882864 -0.258109
  0.299347  0.839159  0.171008
  0.606002  0.124023 -0.087101
  0.106002  0.624023  0.087101
  0.106002  0.375977 -0.087101
  0.606002  0.875977  0.087101
EA598
 1.0000000000000000
     5.147286   -0.000000   -0.000000
     0.000000    2.397096   -0.000000
     0.000000    0.000000    6.614171
 H   O  
   8   4
Direct
  0.016728  0.048939 -0.117190
 -0.025165  0.114718  0.110025
 -0.016728  0.548939  0.382810
  0.025165  0.614718  0.610025
  0.400835 -0.148101  0.073356
  0.539820  0.105570 -0.108598
  0.599165  0.351899  0.573356
  0.460180  0.605570  0.391402
  0.008437 -0.163657  0.007165
 -0.008437  0.336343  0.507165
  0.559344  0.042530  0.035241
  0.440656  0.542530  0.535241
EA599
 1.0000000000000000
     2.819484   -0.000000    0.000000
     0.000000    7.595408   -0.000000
    -0.957353    0.000000    3.810820
 H   O  
   8   4
Direct
  0.770160  0.099825  0.983641
  0.684625  0.170698  0.610080
  0.229840  0.599825  0.516359
  0.315375  0.670698  0.889920
  0.138811  0.815939  0.104005
  0.500362  0.910570  0.399890
  0.861189  0.315939  0.395995
  0.499638  0.410570  0.100110
  0.575615  0.080177  0.747179
  0.424385  0.580177  0.752821
  0.330427  0.922791  0.155205
  0.669573  0.422791  0.344795
EA600
 1.0000000000000000
     4.192614    0.000000    0.000000
     0.000000    4.192614    0.000000
     0.000000    0.000000    4.642688
 H   O  
   8   4
Direct
  0.614383  0.364634  0.590005
  0.341627  0.554465  0.455711
  0.614383  0.364634  0.090005
  0.341627  0.554465 -0.044289
  0.114383 -0.135366  0.362069
 -0.158373  0.054465  0.227775
  0.114383 -0.135366  0.862069
 -0.158373  0.054465  0.727775
  0.543990  0.580901  0.553456
  0.543990  0.580901  0.053456
  0.043990  0.080901  0.325521
  0.043990  0.080901  0.825521
EA601
 1.0000000000000000
     4.715832   -0.000000    0.000000
    -2.357916    4.084031   -0.000000
     0.000000    0.000000    4.237325
 H   O  
   8   4
Direct
  0.430945  0.850027  0.808013
  0.186260  0.524049  0.657067
  0.764278  0.516693  0.308013
  0.519593  0.190715  0.157067
  0.430945  0.850027  0.308013
  0.186260  0.524049  0.157067
  0.764278  0.516693  0.808013
  0.519593  0.190715  0.657067
  0.382795  0.625925  0.784920
  0.716129  0.292591  0.284920
  0.382795  0.625925  0.284920
  0.716129  0.292591  0.784920
EA602
 1.0000000000000000
     4.802423    0.000000    0.000000
     2.171030    4.283677    0.000000
     0.460362   -2.667256    3.966998
 H   O  
   8   4
Direct
  0.409817 -0.107797  0.454196
  0.531740  0.148434  0.502642
  0.159817  0.392203  0.204196
  0.281740  0.648434  0.252642
 -0.090183 -0.107797 -0.045804
  0.031740  0.148434  0.002642
  0.659817  0.392203  0.704196
  0.781740  0.648434  0.752642
  0.558443 -0.040638  0.543162
  0.308443  0.459362  0.293162
  0.058443 -0.040638  0.043162
  0.808443  0.459362  0.793162
EA603
 1.0000000000000000
     4.427000    0.000000   -0.000000
     0.017076    4.426967    0.000000
    -0.002906   -0.041258    4.162795
 H   O  
   8   4
Direct
  0.601825  0.023045  0.952206
  0.415776  0.304136  0.852399
  0.078808  0.571955  0.875331
  0.204582  0.858312  0.711957
  0.456042  0.670945  0.405788
  0.746703  0.532942  0.259253
  1.263670  0.202861  0.457347
  0.970300  0.046202  0.343779
  0.572537  0.165060  0.778481
  0.064421  0.691459  0.681360
  0.635092  0.721600  0.282512
  1.109440  0.207929  0.290961
EA604
 1.0000000000000000
     4.422000   -0.000000   -0.000000
     0.003241    4.421999    0.000000
     0.017338   -0.042046    4.173752
 H   O  
   8   4
Direct
  0.696521  0.888105  0.242176
  0.972764  0.700218  0.350949
  0.755149  0.411629  0.670534
  0.858028  0.127106  0.853991
  0.134068  0.711306  0.853308
  0.461993  0.727179  0.965988
  0.359989  0.052485  0.525030
  0.362500  0.394527  0.476671
  0.816702  0.710481  0.187259
  0.913185  0.258202  0.677322
  0.340145  0.720783  0.772711
  0.332912  0.205030  0.361440
EA605
 1.0000000000000000
     4.338000   -0.000000   -0.000000
     0.000000    4.338000   -0.000000
     0.000000    0.000000    4.338000
 H   O  
   8   4
Direct
 -0.183430 -0.048424  0.005151
  0.168941 -0.036183  0.003662
 -0.177675  0.568655  0.502784
  0.094316  0.344378  0.502818
  0.309119  0.463299 -0.003631
  0.660550  0.463013  0.024119
  0.360480  0.080716  0.472876
  0.630063 -0.136690  0.538690
 -0.007925 -0.039482 -0.134762
 -0.025405  0.476237  0.365931
  0.495787  0.462557 -0.128556
  0.504570 -0.057540  0.370039
EA606
 1.0000000000000000
     4.433000    0.000000    0.000000
    -0.001006    4.433000   -0.000000
     0.018488   -0.032621    4.153831
 H   O  
   8   4
Direct
  0.343018  0.264889  0.250539
  0.471259  0.107201  0.549978
  0.663482  0.503845  0.306723
  0.897697  0.761194  0.327312
  0.924984  0.312506  0.736841
  1.023390  0.130707  1.033388
  0.338830  0.719139  0.732608
  0.603831  0.795222  0.959349
  0.327758  0.081190  0.375382
  0.856548  0.557878  0.401403
  0.855225  0.160987  0.887450
  0.426025  0.668305  0.939667
EA607
 1.0000000000000000
     4.433000    0.000000    0.000000
    -0.001006    4.433000   -0.000000
     0.018488   -0.032621    4.153831
 H   O  
   8   4
Direct
  0.378713  0.269620  0.262367
  0.537689  0.112210  0.544667
  0.842044  0.708401  0.251489
  1.096104  0.726093  0.504172
  0.823931  0.201545  0.767105
  0.992189  0.085329  1.065613
  0.154165  0.503964  0.809453
  0.425135  0.717432  0.862557
  0.350518  0.114263  0.423243
  0.907220  0.624685  0.455418
  0.839706  0.028920  0.908513
  0.348264  0.518819  0.916686
EA608
 1.0000000000000000
     4.421000   -0.000000   -0.000000
     0.001466    4.421000    0.000000
     0.019533   -0.041404    4.175749
 H   O  
   8   4
Direct
  0.646220  0.110809  0.548316
  0.674365  0.454000  0.592313
  0.670422  0.615497  0.075802
  0.825997  0.765835 -0.213055
  0.125036  0.600752  0.402400
  0.023753  0.920910  0.304229
  0.196687  0.392641  0.985557
  0.149902  0.142524  0.734818
  0.674120  0.296447  0.428271
  0.648878  0.780428 -0.075081
  0.181044  0.813119  0.419210
  0.127198  0.184809  0.962343
EA609
 1.0000000000000000
     4.421000   -0.000000   -0.000000
     0.001466    4.421000    0.000000
     0.019533   -0.041404    4.175749
 H   O  
   8   4
Direct
  0.703528  0.110874  0.574263
  0.622735  0.446203  0.543196
  0.672097  0.618197  0.071737
  0.823318  0.772238 -0.217464
 -0.065644  0.684465  0.381106
  0.240347  0.846715  0.333645
  0.109653  0.353105  0.663833
  0.193860  0.093292  0.885789
  0.677365  0.268905  0.416068
  0.647397  0.784012 -0.077507
  0.124251  0.730090  0.488040
  0.159093  0.310229  0.885601
EA610
 1.0000000000000000
     4.419039    0.000000    0.000000
     0.000863    4.419039    0.000000
     0.023208   -0.046743    4.178814
 H   O  
   8   4
Direct
  0.515847  0.040843  0.126775
  0.714326 -0.043444  0.416411
  0.511125  0.471664  0.530025
  0.708987  0.633779  0.785542
  0.017236  0.595648  0.096371
  0.268648  0.392069 -0.045861
  0.016707  0.094157  0.595934
  0.273523 -0.102981  0.454938
  0.702162  0.094275  0.236860
  0.700405  0.455144  0.647055
  0.234976  0.565574  0.094933
  0.235145  0.069674  0.595499
EA611
 1.0000000000000000
     4.431485   -0.000000    0.000000
    -0.000969    4.431485    0.000000
     0.019273   -0.034216    4.156451
 H   O  
   8   4
Direct
 -0.001307  0.649026  0.369076
  0.304126  0.815617  0.356798
  0.049564  0.114329  0.647500
  0.139683  0.301352  0.947189
  0.676899  0.757770  0.682984
  0.732566  0.518403  0.942908
  0.672704  0.253082  0.179538
  0.732745  0.019325  0.444372
  0.172166  0.685192  0.231095
  0.206599  0.246005  0.731724
  0.687533  0.541281  0.715776
  0.687034  0.037489  0.216830
EA612
 1.0000000000000000
     4.325994    0.000000    0.000000
     0.000000    4.325994   -0.000000
     0.001470   -0.002808    4.360791
 H   O  
   8   4
Direct
  0.758165  0.356958  0.408032
  1.034511  0.136053  0.458897
  0.294674  0.216904  0.802290
  0.619710  0.192911  0.937078
  0.772424  0.671899  0.750734
  0.925931  0.778630  1.048311
  0.272357  0.671767  0.250991
  0.425999  0.778809  0.548374
  0.941535  0.273353  0.308496
  0.493093  0.322045  0.804791
  0.969883  0.668353  0.858276
  0.469835  0.668246  0.358484
EA613
 1.0000000000000000
     4.419352    0.000000    0.000000
     0.000539    4.419352   -0.000000
     0.022498   -0.044455    4.177933
 H   O  
   8   4
Direct
  0.716433  0.766987  0.840721
  0.927705  0.717974  0.554397
  0.716470  0.267830  0.339561
  0.927735  0.219191  0.053206
  0.516501  0.120024  0.760168
  0.193539  0.229115  0.682844
  0.516383  0.620541  0.260722
  0.193498  0.730118  0.183695
  0.744493  0.639102  0.652307
  0.744568  0.140111  0.151028
  0.350290  0.089264  0.611352
  0.350022  0.590074  0.112041
EA614
 1.0000000000000000
     4.412828    0.000000    0.000000
     0.154131    4.410136   -0.000000
     0.055061   -0.195227    4.192101
 H   O  
   8   4
Direct
  0.593880  0.670545  0.492443
  0.788772  0.844784  0.258851
  0.141967  0.761727  0.794359
  0.229388  0.812566  1.146569
  0.144379  0.259800  0.291700
  0.223988  0.308668  0.646540
  0.593395  0.170284  0.992194
  0.788190  0.345165  0.759028
  0.755846  0.813806  0.484315
  0.282368  0.868263  0.932019
  0.280841  0.366530  0.433778
  0.756043  0.312847  0.984320
EA615
 1.0000000000000000
     4.419000   -0.000000    0.000000
    -0.000146    4.419000   -0.000000
     0.023352   -0.044201    4.178331
 H   O  
   8   4
Direct
  0.686256  0.971489  0.134394
  0.977080  0.778483  0.158000
  0.311113  0.948506  0.459013
  0.516068  0.780041  0.690353
  0.274238  0.308271  0.174244
  0.545450  0.432369 -0.011802
  0.775297  0.317316  0.676795
  1.052225  0.437331  0.497176
  0.905515  0.986324  0.150164
  0.414938  0.973245  0.661927
  0.421896  0.471884  0.177398
  0.910518  0.490949  0.667624
EA616
 1.0000000000000000
     4.413885    0.000000    0.000000
     0.217722    4.408512    0.000000
     0.062889   -0.249639    4.192536
 H   O  
   8   4
Direct
  0.732966  0.842051  0.895658
  0.523289  0.633204  0.710310
  1.068379  0.208865  0.636110
  0.860364  0.455123  0.813284
  0.200043  0.879143  0.296839
 -0.028579  0.627871  0.329963
  0.545828  0.227256  0.135062
  0.358798  0.478152  0.319058
  0.576601  0.844303  0.735369
  1.017468  0.299512  0.847568
 -0.011876  0.847048  0.345800
  0.519088  0.324205  0.345516
EA617
 1.0000000000000000
     4.418837    0.000000    0.000000
     0.000801    4.418837    0.000000
     0.022732   -0.045718    4.179236
 H   O  
   8   4
Direct
  0.789777  0.362379  0.649875
  0.883028  0.630654  0.437010
  0.439576  0.594026  0.163417
  0.186819  0.391615  0.025191
  0.441878  0.092449  0.665586
  0.186573 -0.103320  0.522563
  0.789792  0.862629  0.149795
  0.882982  1.131337 -0.062428
  0.749371  0.456191  0.445207
  0.307360  0.570284 -0.020039
  0.309820  0.074354  0.481349
  0.750271  0.956098 -0.055208
EA618
 1.0000000000000000
     4.377016    0.000000    0.000000
    -0.000305    4.377016    0.000000
     0.013650   -0.025221    4.259690
 H   O  
   8   4
Direct
  0.254057  0.097453  0.560457
  0.462838 -0.033878  0.304704
  0.249490  0.593624  1.055223
  0.466520  0.460737  0.807636
 -0.056928  0.285832  0.860491
  0.060250  0.022960  1.068340
 -0.056440  0.786317  0.360598
  0.060138  0.523566  0.568902
  0.393632  0.159651  0.394019
  0.396096  0.654724  0.894817
  0.125840  0.206838  0.960469
  0.126334  0.706586  0.459866
EA619
 1.0000000000000000
     4.421838    0.000000    0.000000
    -0.000204    4.421838    0.000000
     0.021881   -0.041246    4.172854
 H   O  
   8   4
Direct
  0.128302  0.178734 -0.138787
  0.164765  0.259795  0.216140
  0.631435  0.170459  0.359519
  0.674328  0.257849  0.711949
  0.762935  0.830991 -0.014440
  0.536905  0.582765  0.070767
  0.110524  0.846709  0.418754
  0.041925  0.590337  0.657872
  0.050710  0.315091  0.026717
  0.541559  0.292239  0.530848
  0.548015  0.796060  0.017441
  0.022140  0.807274  0.628408
EA620
 1.0000000000000000
     4.431531    0.000000    0.000000
     0.001529    4.431531   -0.000000
     0.015722   -0.034255    4.156022
 H   O  
   8   4
Direct
  0.295496  0.657444  0.136593
  0.030471  0.750823 -0.081744
  0.677433  0.552262  1.153793
  0.545420  0.340414  0.893860
  0.093836  0.154814  0.746627
  0.180365  0.360636  0.467558
  0.712253  1.118089  0.433585
  0.508654  0.857493  0.549304
  0.109220  0.582840  0.041896
  0.673903  0.516454  0.923022
  0.114264  0.156498  0.513995
  0.596709  0.945398  0.357231
EA621
 1.0000000000000000
     4.563149    0.000000    0.000000
     1.508604    4.306558    0.000000
     0.316777   -1.699509    4.151590
 H   O  
   8   4
Direct
  0.464861  0.792886 -0.024008
  0.406089  0.835706  0.329378
  1.037322  0.795845  0.559385
  0.781293  0.866850  0.846166
  1.040682  0.430118  0.202760
  0.826974  0.228732  0.129089
  0.542943  0.418381  0.698542
  0.330565  0.216419  0.615491
  0.548771  0.687520  0.123400
  0.927838  0.687921  0.654484
  1.047985  0.201066  0.127224
  0.545679  0.192043  0.643285
EA622
 1.0000000000000000
     4.418375    0.000000    0.000000
     0.001701    4.418375    0.000000
     0.022784   -0.048234    4.178888
 H   O  
   8   4
Direct
  0.596159  0.177229  0.846967
  0.644499  0.119433  0.485751
  0.248180  0.644421  0.598274
 -0.073971  0.576249  0.723260
  0.247891  0.144326  0.098495
 -0.074578  0.076538  0.222903
  0.600940  0.682670  0.346040
  0.642846  0.619355 -0.014871
  0.492835  0.109100  0.654670
  0.048574  0.579230  0.529443
  0.048601  0.078197  0.029512
  0.494222  0.611295  0.157146
EA623
 1.0000000000000000
     4.418627   -0.000000   -0.000000
    -0.000115    4.418627    0.000000
     0.023515   -0.044606    4.178440
 H   O  
   8   4
Direct
  0.637201  0.045102  0.557291
  0.400223  0.227539  0.371018
  1.068037  0.602488  0.285899
  0.981564  0.551251  0.639867
  1.068055  0.102800  0.785810
  0.981743  0.050843  1.139659
  0.633197  0.540539  0.060360
  0.402178  0.725451 -0.131746
  0.442355  0.144893  0.580746
  0.914082  0.649537  0.445884
  0.914755  0.150472  0.946248
  0.439888  0.643988  0.079513
EA624
 1.0000000000000000
     4.399019    0.000000    0.000000
    -0.000646    4.399019   -0.000000
     0.012155   -0.021448    4.218336
 H   O  
   8   4
Direct
  0.522352  0.400776  0.542827
  0.270299  0.556101  0.354442
  1.022296  0.400806  1.042788
  0.770474  0.556369  0.854268
  0.522814  0.899762  1.042480
  0.270975  1.055312  0.853992
  1.018597  0.890860  0.543899
  0.774111  1.054920  0.352670
  0.346083  0.532603  0.569756
  0.846117  0.532785  1.069628
  0.346882  1.032061  1.069288
  0.847759  1.030038  0.568610
EA625
 1.0000000000000000
     4.424942   -0.000000    0.000000
    -0.000560    4.424942    0.000000
     0.021478   -0.039509    4.168115
 H   O  
   8   4
Direct
 -0.033740  0.702197  0.462336
  0.201761  0.525297  0.650162
  0.710753  0.448089 -0.050095
  0.546252  0.703118  0.135873
  0.186165  0.358374  1.059595
  0.358053  0.143834  0.828174
  0.685916  0.359134  0.559859
  0.857251  0.144200  0.328374
  0.161586  0.724934  0.565205
  0.744158  0.612493  0.102495
  0.232509  0.146366  1.020116
  0.733031  0.147149  0.521285
EA626
 1.0000000000000000
     4.366107    0.000000    0.000000
    -0.000080    4.366107   -0.000000
     0.008538   -0.016078    4.281703
 H   O  
   8   4
Direct
  0.300931  0.867818 -0.030736
  0.058191  0.967354  0.206858
  0.804953  0.869980  0.474880
  0.555177  0.972176  0.703438
 -0.063388  0.515999  0.772109
  0.126334  0.223491  0.710995
  0.463159  0.329414  0.343533
  0.462409  0.566647  0.082341
  0.119424  0.793413  0.077887
  0.618619  0.797745  0.576271
  0.130605  0.444661  0.686165
  0.596712  0.471420  0.234364
EA627
 1.0000000000000000
     4.420227    0.000000    0.000000
     0.001874    4.420227   -0.000000
     0.020705   -0.044729    4.176539
 H   O  
   8   4
Direct
  0.586379  0.229335  0.134206
  0.291942  0.277192  0.327676
  1.034751  0.087175  0.714919
  0.724661  0.208459  0.619593
  0.926397  0.853664  0.201770
  1.003048  0.520455  0.121109
  0.378263  0.627324  0.821738
  0.316164  0.628733  0.457226
  0.418904  0.120989  0.231325
  0.820656  0.038735  0.724934
  0.857069  0.647535  0.233919
  0.219460  0.596400  0.663801
EA628
 1.0000000000000000
     4.412259    0.000000    0.000000
     0.210219    4.407248    0.000000
     0.065356   -0.248925    4.195394
 H   O  
   8   4
Direct
  0.435944  0.073833  0.052592
  0.158298  0.199865  0.254416
  0.833470  0.720411  0.168428
  0.790322  0.414265 -0.018842
  0.833463  0.220036  0.668388
  0.790039 -0.086418  0.481749
  0.439230  0.578821  0.556517
  0.156704  0.700318  0.752816
  0.229248  0.030022  0.110331
  0.688987  0.563182  0.131344
  0.688407  0.063400  0.630726
  0.232071  0.532139  0.608935
EA629
 1.0000000000000000
     5.406446   -0.000000   -0.000000
     0.000000    5.406446   -0.000000
     0.000000    0.000000    2.792000
 H   O  
   8   4
Direct
 -0.095332  0.471571  0.456596
  0.104518  0.456930  0.071471
  0.471571  0.095332  0.956596
  0.456930 -0.104518  0.571471
  0.095332  0.028429  0.206596
 -0.104518  0.043070 -0.178529
  0.528429  0.404668  0.706596
  0.543070  0.604518  0.321471
 -0.009186  0.571499  0.221933
  0.571499  0.009186  0.721933
  0.009186 -0.071499 -0.028067
  0.428501  0.490814  0.471933
EA630
 1.0000000000000000
     2.880603   -0.000000   -0.000000
     0.000000    2.880603   -0.000000
     0.000000    0.000000    9.834954
 H   O  
   8   4
Direct
  0.021727  0.127489  0.924179
 -0.057539  0.003159  0.775107
  0.521727  0.627489  0.575821
  0.442461  0.503159  0.724893
  0.021727 -0.127489  0.075821
 -0.057539 -0.003159  0.224893
  0.521727  0.372511  0.424179
  0.442461  0.496841  0.275107
  0.035813 -0.130647  0.861214
  0.535813  0.369353  0.638786
  0.035813  0.130647  0.138786
  0.535813  0.630647  0.361214
EA631
 1.0000000000000000
     5.363084   -0.000000   -0.000000
     0.000000    3.753414   -0.000000
     0.000000    0.000000    4.054134
 H   O  
   8   4
Direct
  0.814325  0.316395  0.332419
  0.587097  0.127246  0.476410
  0.314325  0.316395  0.167581
  0.087097  0.127246  0.023590
  0.185675  0.816395  0.667581
  0.412903  0.627246  0.523590
  0.685675  0.816395  0.832419
  0.912903  0.627246  0.976410
  0.634288  0.306359  0.316170
  0.134288  0.306359  0.183830
  0.365712  0.806359  0.683830
  0.865712  0.806359  0.816170
EA632
 1.0000000000000000
     3.858795    0.000000    0.000000
     0.000000    3.858795    0.000000
     0.000000    0.000000    5.480696
 H   O  
   8   4
Direct
  1.028726  0.635278  0.767117
  1.013867  0.446339  1.011574
  0.528726  0.135278  0.520979
  0.513867 -0.053661  0.765436
  0.528726  0.135278  0.020979
  0.513867 -0.053661  0.265436
  0.028726  0.635278  0.267117
  0.013867  0.446339  0.511574
  0.957407  0.418384  0.840516
  0.457407 -0.081616  0.594378
  0.457407 -0.081616  0.094378
 -0.042593  0.418384  0.340516
EA633
 1.0000000000000000
     4.868756    0.000000   -0.000000
     2.434378    4.216467   -0.000000
    -2.434378   -1.405489    3.975323
 H   O  
   8   4
Direct
  0.421789  0.210507  0.736603
  0.107862  0.367837  0.832963
  0.921789  0.710507  0.236603
  0.607862  0.867837  0.332963
  0.671789  0.460507  0.486603
  0.357862  0.617837  0.582963
  0.171789 -0.039493 -0.013397
 -0.142138  0.117837  0.082963
  0.220349  0.171655  0.680434
  0.720349  0.671655  0.180434
  0.470349  0.421655  0.430434
 -0.029651 -0.078345 -0.069566
EA634
 1.0000000000000000
     4.844519    0.000000    0.000000
     0.000000    4.844519   -0.000000
     0.000000    0.000000    3.477264
 H   O  
   8   4
Direct
  0.682619  0.685141  0.226734
  0.616942  0.726014 -0.198796
  0.182619  0.822543  0.226734
  0.116942  0.863417 -0.198796
  0.820022  0.185141  0.226734
  0.754344  0.226014 -0.198796
  0.320022  0.322543  0.226734
  0.254344  0.363417 -0.198796
  0.744335  0.632741 -0.027937
  0.244335  0.770144 -0.027937
  0.881738  0.132741 -0.027937
  0.381738  0.270144 -0.027937
EA635
 1.0000000000000000
     4.422000   -0.000000   -0.000000
    -0.000232    4.422000   -0.000000
     0.021850   -0.041221    4.172739
 H   O  
   8   4
Direct
  0.198077  0.195326 -0.077836
  0.259879  0.403541  0.214088
  0.536575  0.222165  0.326986
  0.729913  0.307221  0.621836
  0.701231  0.975358 -0.206849
  0.694820  0.720354  0.043747
  0.214380  0.762356  0.486622
 -0.010992  0.706654  0.764105
  0.104221  0.346552  0.060982
  0.579080  0.386780  0.476075
  0.591873  0.904601 -0.019184
  0.032442  0.842568  0.588024
EA636
 1.0000000000000000
     4.422000   -0.000000   -0.000000
    -0.000232    4.422000   -0.000000
     0.021850   -0.041221    4.172739
 H   O  
   8   4
Direct
  0.148900  0.143558 -0.105278
  0.273825  0.320233  0.186646
  0.654043  0.173863  0.427909
  0.758455  0.372768  0.713096
  0.750771  0.900306 -0.190328
  0.676843  0.681342  0.085664
  0.217435  0.910037  0.337088
  0.098578  0.734258  0.630167
  0.143767  0.340259  0.000675
  0.624395  0.370703  0.528875
  0.621096  0.875778 -0.003422
  0.057459  0.909112  0.497859
EA637
 1.0000000000000000
     4.425000    0.000000   -0.000000
    -0.000541    4.425000   -0.000000
     0.021460   -0.039497    4.167758
 H   O  
   8   4
Direct
 -0.030815  0.693547  0.482921
  0.108922  0.538525  0.778074
  0.565409  0.533863  0.024061
  0.543762  0.783351  0.283881
  0.102831  0.333740  1.249864
  0.318940  0.258929  0.968868
  0.447697  0.379805  0.622904
  0.730930  0.263808  0.442187
  0.142054  0.700959  0.625939
  0.658910  0.721482  0.095531
  0.132612  0.193621  1.071531
  0.609713  0.231772  0.634358
EA638
 1.0000000000000000
     4.422000   -0.000000   -0.000000
    -0.000232    4.422000   -0.000000
     0.021850   -0.041221    4.172739
 H   O  
   8   4
Direct
  0.110372  0.184122 -0.137044
  0.256677  0.336314  0.158821
  0.614547  0.238888  0.409445
  0.725045  0.420868  0.704413
  0.791478  0.784041 -0.130780
  0.659107  0.617202  0.161901
  0.255355  0.818170  0.390722
  0.098910  0.676867  0.685481
  0.086460  0.352004  0.013077
  0.557331  0.401870  0.555480
  0.653401  0.808809  0.049749
  0.084337  0.843409  0.535976
EA639
 1.0000000000000000
     4.422000   -0.000000   -0.000000
    -0.000232    4.422000   -0.000000
     0.021850   -0.041221    4.172739
 H   O  
   8   4
Direct
  0.131624  0.170244 -0.121643
  0.264506  0.335532  0.173653
  0.600959  0.123192  0.331501
  0.775973  0.241483  0.626785
  0.719067  0.871976 -0.133993
  0.560251  0.731244  0.159734
  0.260074  0.850734  0.353628
  0.137146  0.677800  0.646774
  0.105018  0.347962  0.014541
  0.617860  0.295641  0.476494
  0.529466  0.871816 -0.014821
  0.098757  0.852215  0.512906
EA640
 1.0000000000000000
     4.422000   -0.000000   -0.000000
    -0.000232    4.422000   -0.000000
     0.021850   -0.041221    4.172739
 H   O  
   8   4
Direct
  0.135204  0.159824 -0.132424
  0.275186  0.318053  0.163419
  0.571647  0.222961  0.369147
  0.718138  0.376505  0.664173
  0.780628  0.813777 -0.128609
  0.636330  0.661410  0.166800
  0.255042  0.837269  0.372067
  0.115011  0.679847  0.666664
  0.110153  0.332650  0.011012
  0.551064  0.394729  0.514718
  0.612940  0.830827  0.022224
  0.088499  0.850686  0.524648
EA641
 1.0000000000000000
     4.422000   -0.000000   -0.000000
    -0.000232    4.422000   -0.000000
     0.021850   -0.041221    4.172739
 H   O  
   8   4
Direct
  0.107157  0.194482 -0.126932
  0.246223  0.353614  0.168865
  0.656548  0.137660  0.371727
  0.802670  0.291575  0.666747
  0.738698  0.850092 -0.122701
  0.594554  0.697574  0.172704
  0.261701  0.830891  0.371726
  0.121750  0.673391  0.666317
  0.081362  0.367449  0.016163
  0.635759  0.309584  0.517056
  0.571467  0.867445  0.028667
  0.095181  0.844250  0.524340
EA642
 1.0000000000000000
     4.403811   -0.000000    0.000000
     0.000528    4.403811   -0.000000
     0.018789   -0.037466    4.208621
 H   O  
   8   4
Direct
  0.976668  0.097900  1.036686
  0.867530  0.088950  0.688660
  0.450232  0.505946  0.791538
  0.132830  0.459233  0.940714
  0.713614  0.455008  0.230461
  0.965238  0.625970  0.412856
  0.449454  0.109364  0.532354
  0.372245  0.117376  0.174513
  0.884941 -0.034918  0.877845
  0.326814  0.559989  0.976096
  0.753780  0.564390  0.427482
  0.394679 -0.019689  0.352740
EA643
 1.0000000000000000
     4.423673    0.000000    0.000000
    -0.000455    4.423673   -0.000000
     0.021875   -0.040518    4.170175
 H   O  
   8   4
Direct
  0.565425  0.564682  0.891947
  0.278636  0.711037  0.750871
  0.563995  0.284093  0.129430
  0.554467  0.363272  0.490174
  0.931581  0.181288  0.330842
  0.884426  0.206317  0.697526
  0.932022  0.680596 -0.168822
  0.884964  0.706475  0.197787
  0.488711  0.752390  0.804191
  0.492884  0.210063  0.335106
  0.966747  0.313614  0.514167
  0.967045  0.813419  0.014079
EA644
 1.0000000000000000
     4.421354    0.000000    0.000000
     0.000864    4.421354    0.000000
     0.020354   -0.041339    4.174682
 H   O  
   8   4
Direct
  0.659219  0.564887  1.042613
  0.455967  0.461750  0.762028
  0.531524  0.042514  0.657221
  0.571352  0.208119  0.339627
  0.902041  0.758031  0.360994
  0.995942  0.458075  0.204169
 -0.119349  0.178443  0.838544
  0.073900 -0.110614  0.878514
  0.544009  0.640744  0.861998
  0.426581  0.087217  0.458972
  1.078004  0.630591  0.320904
  0.078202  0.092059  0.789552
EA645
 1.0000000000000000
     4.418468    0.000000    0.000000
    -0.000490    4.418468   -0.000000
     0.020080   -0.036999    4.180175
 H   O  
   8   4
Direct
  0.279565  0.579429  0.460261
  0.484940  0.316383  0.347863
  0.707079  1.061472  0.438984
  0.890995  0.792402  0.300976
  0.782792  0.470767  0.718399
  0.870591  0.489703  1.074505
  0.492406  0.747106  0.944401
  0.529056  1.093589  0.975442
  0.340497  0.374567  0.513297
  0.702082  0.842922  0.409732
  0.925346  0.565644  0.864489
  0.380047  0.936248  0.933969
EA646
 1.0000000000000000
     4.423417    0.000000    0.000000
     0.000253    4.423417    0.000000
     0.020699   -0.040251    4.170918
 H   O  
   8   4
Direct
  0.131513  0.220097  0.468258
 -0.004114  0.381710  0.764845
  0.492175  0.118862 -0.006307
  0.484412  0.417423  0.188516
  0.347849  0.843658  0.587240
  0.604525  0.611895  0.581244
 -0.129097  0.543907  0.107814
  0.183224  0.672638  0.201765
 -0.059205  0.265609  0.574880
  0.443564  0.332604 -0.023007
  0.387113  0.628648  0.612025
 -0.031432  0.688340  0.251503
EA647
 1.0000000000000000
     4.421529    0.000000   -0.000000
     0.002405    4.421528    0.000000
     0.018372   -0.041744    4.174693
 H   O  
   8   4
Direct
  0.299121  0.676193  0.091769
  0.230294  0.332977  0.094159
  0.343254  0.210926  0.578890
  0.120456 -0.033715  0.470697
  0.926216  0.873526  0.786370
  0.913352  0.714038  1.114799
  0.864811  0.268583  0.274351
  0.835176  0.283773  0.643866
  0.326800  0.490302 -0.031720
  0.335739  0.009070  0.484076
  0.798754  0.845919  0.974370
  0.750662  0.187108  0.454003
EA648
 1.0000000000000000
     4.420934    0.000000    0.000000
     0.000152    4.420934    0.000000
     0.022327   -0.043185    4.174847
 H   O  
   8   4
Direct
  0.470619  0.233775  0.673432
  0.476007  0.446201  0.381713
  0.469393  0.734198  0.176758
  0.474811  0.943116 -0.117729
  1.101808  0.741102  0.617088
  0.775955  0.851072  0.551850
  1.095208  0.446371  0.078592
  0.805007  0.256578  0.122296
  0.349317  0.301865  0.494286
  0.348751  0.798796 -0.004330
  0.911472  0.679564  0.520967
  0.900764  0.402623 -0.018478
EA649
 1.0000000000000000
     4.424095    0.000000    0.000000
    -0.000087    4.424095   -0.000000
     0.021025   -0.039927    4.169563
 H   O  
   8   4
Direct
  0.042017  0.353852  0.802082
  0.290945  0.495151  0.596072
  0.911089  0.633976  0.121391
  0.799864  0.953310  0.031605
  0.616095  1.100107  0.589749
  0.560299  0.855196  0.335466
  0.456070  0.301008 -0.106494
  0.484329  0.480858  0.211165
  0.072752  0.493090  0.625731
  0.977997  0.842200  0.099536
  0.675851  0.895638  0.528917
  0.379079  0.478412  0.006782
EA650
 1.0000000000000000
     4.421205    0.000000    0.000000
     0.001830    4.421205    0.000000
     0.019083   -0.041536    4.175340
 H   O  
   8   4
Direct
  0.722501  0.855265 -0.060338
  0.852428  1.050929  0.210293
  0.272741  0.647066  0.731684
  0.173658  0.579203  1.079795
  0.807261  0.406342  0.324481
  0.779444  0.281526  0.667689
  0.296253  0.197910  0.230539
  0.361289  0.200628  0.594753
  0.797490  0.843337  0.157838
  0.336307  0.545040  0.925894
  0.915450  0.391195  0.526444
  0.312837  0.066791  0.415402
EA651
 1.0000000000000000
     4.371611    0.000000    0.000000
    -0.000084    4.371611    0.000000
     0.010143   -0.019140    4.270849
 H   O  
   8   4
Direct
  0.849108  0.612941  1.038097
  0.854165  0.287925  0.895658
  0.302277  0.947737  0.217501
  0.436057  0.752819 -0.052685
  0.302853  0.447813  0.717334
  0.436574  0.252204  0.447680
  0.823781  0.833069  0.361701
  0.991958  0.994742  0.633415
  0.716704  0.451861  0.958529
  0.404889  0.755216  0.172967
  0.405074  0.255027  0.673277
  0.900745  1.031479  0.429560
EA652
 1.0000000000000000
     4.364080    0.000000    0.000000
    -0.000063    4.364080   -0.000000
     0.010760   -0.020390    4.284940
 H   O  
   8   4
Direct
  0.709171  0.202522  0.034592
  0.760754  0.497539  0.221374
  0.740763  0.733694  0.806624
  0.752586  1.013249  0.586642
  0.147883  0.585364  0.230496
  0.093003  0.676969  0.574484
  0.145750  0.089904  0.729904
  0.095905  0.177164  1.075511
  0.607411  0.392434  0.095160
  0.655801  0.814222  0.614092
  0.184998  0.519181  0.443020
  0.186590  0.021270  0.940892
EA653
 1.0000000000000000
     4.421947   -0.000000    0.000000
    -0.000142    4.421947    0.000000
     0.021727   -0.041231    4.172898
 H   O  
   8   4
Direct
  0.393560  0.315484  0.467012
  0.383239  0.664768  0.477356
  0.894235  0.315311  0.970070
  0.889063  0.664735  0.973323
  1.010440  0.940879  0.602203
  0.770268  1.031762  0.353286
  0.507009  0.941168  1.106098
  0.271630  1.033260  0.852533
  0.488597  0.494476  0.378215
  0.991878  0.491253  0.877579
  0.985372  0.993757  0.378273
  0.486099  0.994308  0.881708
EA654
 1.0000000000000000
     4.388716   -0.000000    0.000000
    -0.000363    4.388716    0.000000
     0.015629   -0.028783    4.237131
 H   O  
   8   4
Direct
  0.751848  0.740864  0.656222
  0.896799  0.653579  0.335033
  0.199531  0.353332  0.449779
  0.476316  0.157086  0.543868
  0.849990  0.082514  0.147723
  0.976056  0.364654 -0.026486
  0.508590  0.639707  1.120250
  0.301580  0.656833  0.826278
  0.793826  0.567969  0.518010
  0.397155  0.282786  0.374539
  0.794563  0.238847 -0.003492
  0.307495  0.703428  1.050995
EA655
 1.0000000000000000
     4.415291    0.000000    0.000000
     0.122500    4.413591    0.000000
     0.047114   -0.161279    4.186270
 H   O  
   8   4
Direct
  0.727257  0.229469  0.339341
  0.871446  0.249759  0.003234
  0.718204  0.589890  0.661847
  0.882786  0.894342  0.665673
  0.218322  0.591748  0.160588
  0.390156  0.892018  0.165936
  0.230340  0.227677  0.839161
  0.368673  0.250080  0.500701
  0.911597  0.180519  0.216614
  0.909968  0.681508  0.713913
  0.412261  0.678544  0.213297
  0.412631  0.179653  0.712750
EA656
 1.0000000000000000
     4.410150    0.000000    0.000000
     0.000694    4.410150   -0.000000
     0.020821   -0.041792    4.195659
 H   O  
   8   4
Direct
  0.556756  0.118037  0.543343
  0.766457  0.192421  0.827996
  0.529751  0.801743  0.108402
  0.833418  0.642934  0.180710
  0.092407  0.774781  0.846416
  0.197855  0.933835  0.539252
  0.372629  0.316440  0.038965
  0.232615  0.422696  0.359015
  0.679497  0.024481  0.707076
  0.651286  0.724096  0.281809
  0.254750  0.777206  0.688866
  0.236274  0.253248  0.208947
EA657
 1.0000000000000000
     4.376685    0.000000    0.000000
     0.000224    4.376685    0.000000
     0.010727   -0.021144    4.261013
 H   O  
   8   4
Direct
  0.762427  0.304826  0.533584
  0.918880  0.558992  0.340341
  0.250566  0.306324  1.053169
  0.436036  0.536797  0.856547
  0.718034  1.038058  0.063863
  0.903549  0.754243 -0.038398
  0.448706  0.969314  0.428605
  0.111129  0.940634  0.529692
  0.945519  0.430531  0.523782
  0.452986  0.396106  1.031574
  0.698740  0.820164  0.020983
  0.283246  0.822717  0.450601
EA658
 1.0000000000000000
     4.420033    0.000000    0.000000
    -0.000181    4.420033   -0.000000
     0.022826   -0.043123    4.176646
 H   O  
   8   4
Direct
  0.455258  0.757078  1.165616
  0.500617  0.860731  0.816451
  0.622753  0.353584  0.587078
  0.330873  0.261465  0.408911
  1.120023  0.356743  1.090270
  0.831243  0.259331  0.909442
  0.953086  0.754002  0.665983
  0.995964  0.865413  0.319210
  0.540398  0.693940  0.960528
  0.533551  0.191800  0.459396
  1.034569  0.193113  0.962251
  1.037443  0.695763  0.459013
EA659
 1.0000000000000000
     4.419000    0.000000    0.000000
    -0.000154    4.419000    0.000000
     0.023340   -0.044150    4.178702
 H   O  
   8   4
Direct
  0.964065  0.244937  0.495892
  0.692912  0.026452  0.457195
  0.288178  0.740142  0.617125
  0.326326  0.536894  0.315958
  0.785407  0.738755  1.115991
  0.821844  0.535833  0.814090
  0.470184  0.241285  0.989659
  0.184472  0.041744  0.952807
  0.900789  0.036973  0.531587
  0.378458  0.551702  0.541375
  0.877452  0.551748  1.038512
  0.390328  0.040693  1.033646
EA660
 1.0000000000000000
     4.429262    0.000000    0.000000
     0.001384    4.429262    0.000000
     0.017208   -0.036648    4.160837
 H   O  
   8   4
Direct
  0.208650  0.710981  0.515221
  0.168977  0.369388  0.551635
  0.185263  0.210329  0.012583
  0.140308 -0.130901  0.043438
  0.777928  0.847906  0.678429
  0.668243  1.160475  0.784224
  0.776861  0.348786  0.177812
  0.667516  0.661474  0.283557
  0.131738  0.560241  0.662910
  0.144850  0.054544  0.170587
  0.596536  0.970419  0.695024
  0.595668  0.471622  0.193958
EA661
 1.0000000000000000
     4.425344    0.000000    0.000000
     0.000676    4.425344    0.000000
     0.019615   -0.039281    4.167516
 H   O  
   8   4
Direct
  0.092159  0.699182  0.480198
  0.388935  0.880827  0.450218
  0.808954  0.821589  1.051598
  0.607365  0.791383  0.752165
  0.811484  0.320055  0.550756
  0.604553  0.288070  0.255284
  0.091427  0.199642  0.979720
  0.388551  0.380877  0.950445
  0.209705  0.820115  0.331653
  0.795458  0.880004  0.828213
  0.793379  0.378028  0.327629
  0.209545  0.320334  0.831395
EA662
 1.0000000000000000
     2.880603   -0.000000   -0.000000
     0.000000    2.880603   -0.000000
     0.000000    0.000000    9.834954
 H   O  
   8   4
Direct
  0.035189  0.109198  0.780691
  0.004545 -0.215021  0.903121
  0.609198  0.464811  0.426309
  0.284979  0.495455  0.303879
  0.390802  0.464811  0.573691
  0.715021  0.495455  0.696121
 -0.035189 -0.109198  0.073691
 -0.004545  0.215021  0.196121
 -0.039734  0.105823  0.876688
  0.605823  0.539734  0.330312
  0.394177  0.539734  0.669688
  0.039734 -0.105823  0.169688
EA663
 1.0000000000000000
     5.147286   -0.000000   -0.000000
     0.000000    2.397096   -0.000000
     0.000000    0.000000    6.614171
 H   O  
   8   4
Direct
  0.001015  0.027265  0.118825
 -0.027382  0.125776 -0.108100
  0.501015  0.027265 -0.118825
  0.472618  0.125776  0.108100
 -0.092389  0.249181  0.528019
  0.040065  0.747279  0.427792
  0.407611  0.249181  0.471981
  0.540065  0.747279  0.572208
  0.026367 -0.153041 -0.010725
  0.526367 -0.153041  0.010725
  0.052324  0.503540  0.544189
  0.552324  0.503540  0.455811
EA664
 1.0000000000000000
     2.956427   -0.000000    0.000000
     0.000000    5.707382   -0.000000
     1.477655   -0.000000    4.836542
 H   O  
   8   4
Direct
  0.477295 -0.003986  0.798354
  0.178336  0.187080  0.720324
  0.977295  0.503986  0.298354
  0.678336  0.312920  0.220324
  0.891922  0.928732  0.221090
  0.361490  0.880407  0.298311
  0.391922  0.571268  0.721090
 -0.138510  0.619593  0.798311
  0.433968  0.164306  0.801523
  0.933968  0.335694  0.301523
  0.656988  0.843461  0.160400
  0.156988  0.656539  0.660400
EA665
 1.0000000000000000
     5.607423   -0.000000    0.000000
    -2.803711    4.856171   -0.000000
     0.000000    0.000000    2.996966
 H   O  
   8   4
Direct
  0.485002 -0.130692  0.627769
  0.682287  0.129245  0.884936
 -0.066781  0.421091  0.627769
  0.130504  0.681028  0.884936
  0.381437  0.317525  0.627769
  0.578722  0.577462  0.884936
 -0.066781 -0.130692  0.028737
  0.130504  0.129245  0.285905
  0.488059  0.001447  0.839179
 -0.063724  0.553230  0.839179
  0.384493  0.449664  0.839179
 -0.063724  0.001447  0.240148
EA666
 1.0000000000000000
     4.547645   -0.000000    0.000000
     1.411536    4.120290    0.000000
     0.000000    0.000000    4.355367
 H   O  
   8   4
Direct
  1.095853  0.262060  0.916999
  0.866313  0.150387  0.728419
  1.095853  0.830545  0.348514
  0.866313  0.718873  0.159934
  0.595853  0.830545  0.848514
  0.366313  0.718873  0.659934
  0.595853  0.262060  0.416999
  0.366313  0.150387  0.228419
  1.037833  0.234825  0.707310
  1.037833  0.803310  0.138824
  0.537833  0.803310  0.638824
  0.537833  0.234825  0.207310
EA667
 1.0000000000000000
     3.435553    0.000000    0.000000
     0.000000    3.256911    0.000000
     0.000000    0.000000    7.293510
 H   O  
   8   4
Direct
  0.442690  0.323401  0.175969
  0.028760  0.185990  0.131057
  0.942690  0.823401  0.421596
  0.528760  0.685990  0.376685
  0.942690  0.823401  0.921596
  0.528760  0.685990  0.876685
  0.442690  0.323401  0.675969
  0.028760  0.185990  0.631057
  0.278549  0.240609  0.074533
  0.778549  0.740609  0.320161
  0.778549  0.740609  0.820161
  0.278549  0.240609  0.574533
EA668
 1.0000000000000000
     4.422000   -0.000000   -0.000000
    -0.000232    4.422000   -0.000000
     0.021850   -0.041221    4.172739
 H   O  
   8   4
Direct
  0.092369  0.208190 -0.128566
  0.231890  0.366871  0.167257
  0.622052  0.170686  0.369377
  0.768058  0.324709  0.664401
  0.805038  0.793381 -0.133391
  0.661980  0.639803  0.161972
  0.257284  0.835681  0.371406
  0.116796  0.678689  0.666023
  0.066822  0.380970  0.014835
  0.601463  0.342905  0.514343
  0.638113  0.809951  0.018448
  0.090609  0.849421  0.523795
EA669
 1.0000000000000000
     4.422000   -0.000000   -0.000000
    -0.000232    4.422000   -0.000000
     0.021850   -0.041221    4.172739
 H   O  
   8   4
Direct
  0.149982  0.146100 -0.130722
  0.289509  0.304781  0.165097
  0.606116  0.189906  0.371488
  0.752725  0.343344  0.666509
  0.714246  0.870500 -0.118313
  0.568862  0.719195  0.177129
  0.259461  0.832480  0.372385
  0.119967  0.674551  0.666955
  0.124683  0.319113  0.012409
  0.585335  0.361378  0.517421
  0.546254  0.888332  0.032045
  0.093074  0.845516  0.525190
EA670
 1.0000000000000000
     4.422000   -0.000000   -0.000000
    -0.000232    4.422000   -0.000000
     0.021850   -0.041221    4.172739
 H   O  
   8   4
Direct
  0.078836  0.220522 -0.130122
  0.218693  0.378865  0.165720
  0.584167  0.206753  0.365779
  0.731677  0.359262  0.660821
  0.734795  0.853602 -0.121882
  0.589926  0.701791  0.173544
  0.273644  0.819666  0.370902
  0.133530  0.662320  0.665501
  0.053585  0.393269  0.013382
  0.564103  0.378034  0.512074
  0.566882  0.870996  0.028628
  0.107077  0.833141  0.523448
EA671
 1.0000000000000000
     4.422000   -0.000000   -0.000000
    -0.000232    4.422000   -0.000000
     0.021850   -0.041221    4.172739
 H   O  
   8   4
Direct
  0.163558  0.133811 -0.129104
  0.302749  0.292829  0.166695
  0.644012  0.153892  0.375290
  0.789115  0.308842  0.670284
  0.784452  0.810205 -0.129632
  0.640878  0.657131  0.165752
  0.243094  0.848489  0.372900
  0.103226  0.690913  0.667489
  0.137964  0.306858  0.013923
  0.622707  0.326300  0.519890
  0.617447  0.827212  0.022058
  0.076599  0.861791  0.525549
EA672
 1.0000000000000000
     3.436000   -0.000000   -0.000000
     0.000000    3.257000   -0.000000
     0.000000    0.000000    7.294000
 H   O  
   8   4
Direct
  0.325734  0.434331  0.127329
  0.202394  0.018887  0.206744
  0.881611  0.895232  0.421527
  0.551454  0.581089  0.408278
  0.929183  0.907799  0.907070
  0.602811  0.588453  0.926840
  0.409425  0.403594  0.663152
  0.080311  0.084124  0.668063
  0.241761  0.161590  0.091467
  0.768997  0.692367  0.339899
  0.749463  0.742175  0.836056
  0.241019  0.242028  0.584290
EA673
 1.0000000000000000
     3.436000   -0.000000   -0.000000
     0.000000    3.257000   -0.000000
     0.000000    0.000000    7.294000
 H   O  
   8   4
Direct
  0.446495  0.167026  0.204048
  0.027127  0.198630  0.134263
  0.929547  0.896141  0.415243
  0.606100  0.574407  0.428895
  0.896014  0.869872  0.930470
  0.564897  0.554998  0.914220
  0.403767  0.395538  0.676300
  0.073334  0.077426  0.674431
  0.294869  0.244942  0.097414
  0.732231  0.757959  0.342880
  0.734727  0.728756  0.841380
  0.237629  0.239970  0.594040
EA674
 1.0000000000000000
     4.421963    0.000000    0.000000
    -0.000232    4.421963    0.000000
     0.021843   -0.041208    4.172810
 H   O  
   8   4
Direct
  0.831069  0.723840  0.580169
  0.541346  0.546842  0.494382
  0.697111  0.144456  0.215626
  0.674361  0.130592 -0.153459
  0.383309  0.588870  1.014420
  0.086522  0.770357  0.973365
  0.184928  0.128754  0.725923
  0.186891  0.112865  0.355688
  0.756153  0.521495  0.534181
  0.761414  0.027119  0.029121
  0.169908  0.566871  0.962252
  0.249631  0.003763  0.545410
EA675
 1.0000000000000000
     4.405614    0.000000    0.000000
    -0.000371    4.405614   -0.000000
     0.017418   -0.032235    4.205063
 H   O  
   8   4
Direct
  0.515571  1.124875  0.279970
  0.272084  0.875254  0.243776
  1.068508  0.517296  0.439126
  0.804971  0.578471  0.207137
  0.646925  0.640528  0.698896
  0.343898  0.703209  0.873695
  0.932748 -0.020985  0.702783
  0.990124  0.265339  0.907706
  0.460298  0.923598  0.353301
  0.883683  0.428155  0.353291
  0.529505  0.801108  0.801247
  0.946012  0.049465  0.922128
EA676
 1.0000000000000000
     4.424181    0.000000    0.000000
    -0.000457    4.424181   -0.000000
     0.021566   -0.039967    4.169116
 H   O  
   8   4
Direct
  0.185054  0.730459  0.080316
  0.505182  0.768312  0.221712
  0.686618  0.729449  0.580245
  1.004232  0.770871  0.726941
  0.793245  0.094901  0.201600
  0.901385  0.410673  0.094889
  0.297996  0.093149  0.696757
  0.403749  0.412027  0.597999
  0.292718  0.806099  0.267326
  0.790761  0.806888  0.768745
  0.787640  0.307627  0.261686
  0.290305  0.304594  0.761808
EA677
 1.0000000000000000
     4.423792   -0.000000    0.000000
    -0.000439    4.423792   -0.000000
     0.021901   -0.040607    4.170056
 H   O  
   8   4
Direct
  0.885584  0.860791  0.555889
  0.681466  0.846977  0.262776
  0.883911  0.359202  1.058901
  0.690249  0.350675  0.757738
  0.250715  0.303893  0.674931
  0.345215  0.572215  0.461985
  0.211903  1.011580  0.204594
  0.385828  0.870722 -0.082350
  0.736151  0.979130  0.441499
  0.733331  0.476508  0.944944
  0.184987  0.425081  0.494885
  0.183844  0.924879 -0.008199
EA678
 1.0000000000000000
     4.374107    0.000000    0.000000
    -0.000141    4.374107   -0.000000
     0.012711   -0.023925    4.265203
 H   O  
   8   4
Direct
  0.470506  0.872078  0.175870
  0.172920  0.996427  0.325866
  0.573620  0.412853  0.159487
  0.860173  0.529865  0.325645
  0.575085  0.919053  0.658203
  0.864087  1.028658  0.824677
  0.372412  0.393888  0.644274
  0.206262  0.428467  0.958712
  0.262465  0.813943  0.231839
  0.789211  0.456297  0.122595
  0.791808  0.956039  0.621793
  0.173101  0.366436  0.742310
EA679
 1.0000000000000000
     4.422000   -0.000000    0.000000
    -0.000232    4.422000    0.000000
     0.021850   -0.041221    4.172739
 H   O  
   8   4
Direct
  0.221751  0.314239  0.317566
  0.442288  0.500317  0.527226
  0.724363  0.313625  0.819070
  0.939828  0.503225  1.031264
  0.645172  0.088965  0.385197
  0.368506 -0.035369  0.201232
  0.151280  0.114652  0.867341
 -0.123286 -0.030254  0.697683
  0.228498  0.466298  0.487321
  0.727003  0.466342  0.988356
  0.571588  0.044340  0.170866
  0.068709  0.070322  0.656537
EA680
 1.0000000000000000
     3.934918    0.000000   -0.000000
    -0.000235    3.861536    0.000000
     0.016426   -0.030396    5.371363
 H   O  
   8   4
Direct
  0.682852  0.207869  0.155406
  0.307484  0.101928  0.177696
  0.701063  0.151412  0.666846
  0.317951  0.081218  0.668101
  0.188692  0.697673  0.405280
 -0.186578  0.592268  0.427794
  1.184242  0.703995  0.904944
  0.809704  0.600513  0.925322
  0.496265  0.108808  0.060996
  0.515754  0.079134  0.559825
  0.000811  0.603510  0.310046
  1.002478  0.592809  0.812761
EA681
 1.0000000000000000
     4.185390    0.000000    0.000000
    -0.000177    4.152445   -0.000000
     0.020003   -0.037737    4.695178
 H   O  
   8   4
Direct
  0.010303  0.182800  0.265409
  0.098872  0.020510 -0.021554
  0.394693  0.527224  0.161207
  0.716035  0.679528  0.070871
 -0.103207  0.530089  0.658915
  0.222369  0.675313  0.571596
  0.507824  0.185308  0.765441
  0.600693  0.018657  0.481442
  0.126731  0.001769  0.183106
  0.624493  0.506658  0.183704
  0.125838  0.504578  0.683661
  0.626045  0.003453  0.686655
EA682
 1.0000000000000000
     4.421443    0.000000   -0.000000
    -0.000017    4.421443    0.000000
     0.022099   -0.042328    4.173841
 H   O  
   8   4
Direct
  0.298678  0.155321  0.621366
  0.225218  0.340383  0.319518
  0.278400  0.577851  0.916349
  0.240596  0.908343  1.033816
  0.781156  0.579741  0.419004
  0.736791  0.909526  0.536320
  0.791496  0.155721  1.123766
  0.726268  0.341211  0.820032
  0.132320  0.219072  0.486524
  0.128124  0.723682  0.990033
  0.627830  0.722948  0.491451
  0.628671  0.221274  0.985221
EA683
 1.0000000000000000
     4.384522    0.000000   -0.000000
    -0.000115    4.384522    0.000000
     0.013151   -0.024833    4.246026
 H   O  
   8   4
Direct
  0.429132  0.780176  0.376022
  0.694897  0.590401  0.509088
 -0.049210  0.621584  0.971009
  0.270256  0.665668  0.824589
  0.777741  0.106773  0.612587
  0.722965  0.172361  0.966306
  0.275588  0.107651  0.108821
  0.226343  0.169820  0.463972
  0.647256  0.745154  0.354072
  0.059562  0.733387  0.808764
  0.630281  0.192898  0.759763
  0.130400  0.192223  0.259286
EA684
 1.0000000000000000
     4.424880    0.000000    0.000000
    -0.000529    4.424880    0.000000
     0.021476   -0.039566    4.167958
 H   O  
   8   4
Direct
  0.098669  0.677233  1.058992
 -0.088925  0.850222  0.808639
  0.669475  0.326264  0.924712
  0.345809  0.197217  0.950586
  0.167699  0.328610  0.429826
 -0.154788  0.195676  0.450137
  0.600857  0.679836  0.560560
  0.414335  0.846389  0.304489
  0.041768  0.675293  0.834089
  0.536913  0.170938  0.837602
  0.037944  0.172470  0.339514
  0.546100  0.673094  0.335061
EA685
 1.0000000000000000
     4.400686    0.000000    0.000000
    -0.000328    4.400686    0.000000
     0.016372   -0.030357    4.214626
 H   O  
   8   4
Direct
  0.908427  0.477369  0.535179
  0.644478  0.542077  0.305281
  0.240365  0.528437  0.701072
  0.351273  0.720239  0.986310
  0.233522  0.028827  0.204976
  0.344108  0.217098  0.492215
  0.759576  0.178717  0.698529
  0.860029  0.006124  0.997833
  0.854132  0.472916  0.311590
  0.317293  0.512062  0.916526
  0.312772  0.009710  0.419030
  0.780119 -0.024297  0.785039
EA686
 1.0000000000000000
     4.002674    0.000000    0.000000
    -0.000046    3.945436    0.000000
     0.008283   -0.015651    5.169203
 H   O  
   8   4
Direct
  0.552908  0.148010  0.346973
  0.768709  0.013143  0.123002
  0.059337  0.638543  0.597482
  0.274557  0.503702  0.373381
  0.054739  0.642375  1.094302
  0.269779  0.511072  0.870307
  0.575094  0.089301  0.854197
  0.783321 -0.004484  0.615655
  0.767081  0.179338  0.261918
  0.271128  0.673091  0.510052
  0.274002  0.665756  1.016212
  0.778450  0.148832  0.762714
EA687
 1.0000000000000000
     4.422000   -0.000000    0.000000
    -0.000232    4.422000    0.000000
     0.021850   -0.041221    4.172739
 H   O  
   8   4
Direct
  0.763241  0.231448  0.959030
  0.607778  0.368550  0.663838
  0.577172  0.822949  0.448171
  0.794463  0.785589  0.159472
  0.380509  0.676077  0.946859
  0.080840  0.773340  0.789147
  0.317484  0.139088  0.230739
  0.140952  0.315752  0.492613
  0.631851  0.180967  0.780379
  0.635552  0.682416  0.278160
  0.287229  0.839403  0.828269
  0.290801  0.339971  0.323167
EA688
 1.0000000000000000
     4.420063    0.000000    0.000000
    -0.000182    4.420063    0.000000
     0.022811   -0.043094    4.176587
 H   O  
   8   4
Direct
  0.644495  0.430813  0.293091
  0.942747  0.414351  0.484135
  0.820033  0.943278  0.629686
  0.951738  0.913391  0.970355
  0.319038  0.948095  0.132500
  0.455359  0.911139  0.470632
  0.144563  0.432642  0.793089
  0.442223  0.414472  0.985022
  0.824534  0.546409  0.348049
  0.821748  1.039808  0.840362
  0.325891  1.041715  0.344519
  0.325070  0.547245  0.848713
EA689
 1.0000000000000000
     4.423389    0.000000    0.000000
    -0.000375    4.423389   -0.000000
     0.021669   -0.040422    4.170433
 H   O  
   8   4
Direct
  0.326007  0.143932  0.070451
  0.050940  0.121539  0.298885
  0.784884  0.028020  0.566764
  0.635739  0.158724  0.872960
  0.727967  0.633555  0.263500
  0.645339  0.294613  0.270191
  0.110355  0.538778  0.927930
  0.268093  0.404316  0.628266
  0.218013  0.004562  0.209154
  0.823708  0.073081  0.791343
  0.570211  0.490839  0.203578
  0.082676  0.501953  0.699701
EA690
 1.0000000000000000
     3.844020   -0.000000    0.000000
    -0.000096    3.754450    0.000000
     0.014504   -0.027363    5.654804
 H   O  
   8   4
Direct
  0.666911  1.017141  0.181070
  0.274496  0.938645  0.185439
  0.681010  0.968678  0.696928
  0.288235  0.911229  0.672470
  1.172553  0.507175  0.431465
  0.780239  0.429312  0.435889
  1.168593  0.513026  0.929507
  0.777621  0.435676  0.931656
  0.489199  0.872274  0.105859
  0.509528  0.841312  0.603644
  0.994139  0.366418  0.354037
  0.994216  0.358069  0.860134
EA691
 1.0000000000000000
     4.424415   -0.000000    0.000000
    -0.000481    4.424415    0.000000
     0.021536   -0.039833    4.168729
 H   O  
   8   4
Direct
  0.037253  0.800163  0.735488
  0.256592  0.626176  0.510934
  0.244296  0.322111  0.229923
  0.044575  0.105502  0.029702
  0.742450  0.324895  0.729609
  0.544400  0.103306  0.533564
  0.533390  0.798565  0.239532
  0.752588  0.631033  0.009309
  0.167991  0.623754  0.725015
  0.163870  0.117580  0.224602
  0.664547  0.119329  0.727631
  0.666078  0.623924  0.224206
EA692
 1.0000000000000000
     4.422000    0.000000    0.000000
     0.001070    4.422000   -0.000000
     0.020120   -0.041490    4.173737
 H   O  
   8   4
Direct
  0.164799  0.877680  0.296639
  0.272358  0.549462  0.262513
  0.195912  0.383780  0.786090
  0.016568  0.205058  0.530291
  0.546774  0.967500  0.535429
  0.570551  0.625802  0.458135
  0.548878  0.375228  0.837450
  0.567744  0.216528  1.165008
  0.174644  0.710433  0.143845
  0.218560  0.232134  0.617322
  0.691487  0.807765  0.487278
  0.691532  0.303320  0.996139
EA693
 1.0000000000000000
     4.421880    0.000000    0.000000
    -0.000186    4.421880    0.000000
     0.021904   -0.041459    4.172976
 H   O  
   8   4
Direct
  0.687225  0.225251  0.567754
  0.886722 -0.032395  0.429890
  0.389071  0.738991  0.486528
  0.192017  0.450624  0.497044
  0.885443  0.741433  0.982692
  0.690329  0.452161  1.001822
  0.185619  0.225225  1.062798
  0.388103 -0.032838  0.931133
  0.737644  0.118167  0.369915
  0.240941  0.623970  0.364621
  0.736477  0.623421  0.865290
  0.239213  0.116298  0.867052
EA694
 1.0000000000000000
     2.938867   -0.000000    0.000000
     0.000000    9.625379   -0.000000
    -0.560259    0.000000    2.884970
 H   O  
   8   4
Direct
  0.167907  0.068656  0.320977
 -0.131760  0.183806  0.061397
  0.667907  0.568656  0.320977
  0.368240  0.683806  0.061397
  0.667907  0.431344  0.820977
  0.368240  0.316194  0.561397
  0.167907  0.931344  0.820977
 -0.131760  0.816194  0.561397
 -0.036147  0.144168  0.367626
  0.463853  0.644168  0.367626
  0.463853  0.355832  0.867626
 -0.036147  0.855832  0.867626
EA695
 1.0000000000000000
    13.227671   -0.000000   -0.000000
     0.000000    2.574626   -0.000000
     0.000000    0.000000    2.396302
 H   O  
   8   4
Direct
  0.230656  0.270749 -0.110879
  0.293661 -0.204490  0.044281
 -0.019344  0.270749  0.610879
  0.043661 -0.204490  0.455719
  0.730656  0.270749 -0.110879
  0.793661 -0.204490  0.044281
  0.480656  0.270749  0.610879
  0.543661 -0.204490  0.455719
  0.225683 -0.066259  0.066598
 -0.024317 -0.066259  0.433402
  0.725683 -0.066259  0.066598
  0.475683 -0.066259  0.433402
EA696
 1.0000000000000000
     4.337569   -0.000000   -0.000000
     0.000000    4.337569   -0.000000
     0.000000    0.000000    4.337569
 H   O  
   8   4
Direct
  0.189051  0.774190  0.793156
 -0.013698  0.525194  0.937131
  0.524190  0.439051  0.456844
  0.275194  0.236302  0.312869
  0.954702  0.199165  0.479378
  0.743753  0.023829  0.699817
  0.546801  0.849842 -0.037206
  0.763617  0.933670  0.226989
  0.199647  0.575616  0.894713
  0.325616  0.449647  0.355287
  0.926544  0.152006  0.695805
  0.564582  0.841487  0.185217
EA697
 1.0000000000000000
     4.648658    0.000000    0.000000
     2.324329    4.189921   -0.000000
    -2.324329    0.000000    4.189921
 H   O  
   8   4
Direct
  0.491689  1.098786 -0.116368
  0.538638  0.967393  0.171509
  0.241689  0.598786  0.383632
  0.288638  0.467393  0.671509
 -0.008311  0.098786 -0.116368
  0.038638 -0.032607  0.171509
  0.741689  0.598786  0.383632
  0.788638  0.467393  0.671509
  0.469673  0.933821 -0.055142
  0.219673  0.433821  0.444858
 -0.030327 -0.066179 -0.055142
  0.719673  0.433821  0.444858
EA698
 1.0000000000000000
     5.023653    0.000000   -0.000000
     0.000000    5.023653   -0.000000
     0.000000    0.000000    3.233701
 H   O  
   8   4
Direct
  0.222486  0.369120  0.152997
  0.344873  0.139060 -0.089742
  0.222486  0.869120  0.152997
  0.344873  0.639060 -0.089742
  0.722486  0.369120  0.152997
  0.844873  0.139060 -0.089742
  0.722486  0.869120  0.152997
  0.844873  0.639060 -0.089742
  0.182642  0.241821 -0.063255
  0.182642  0.741821 -0.063255
  0.682642  0.241821 -0.063255
  0.682642  0.741821 -0.063255
EA699
 1.0000000000000000
     3.770265    0.000000    0.000000
     0.000000    3.770265    0.000000
     0.000000    0.000000    5.741104
 H   O  
   8   4
Direct
 -0.183093  0.496623  0.503461
  0.128114  0.582982  0.343140
  0.316907 -0.003377  0.503461
  0.628114  0.082982  0.343140
  0.816907  0.496623  1.037794
  1.128114  0.582982  0.877473
  0.316907 -0.003377  1.037794
  0.628114  0.082982  0.877473
  0.054979  0.420395  0.464600
  0.554979 -0.079605  0.464600
  1.054979  0.420395  0.998934
  0.554979 -0.079605  0.998934
EA700
 1.0000000000000000
     4.422000   -0.000000   -0.000000
    -0.000232    4.422000   -0.000000
     0.021850   -0.041221    4.172739
 H   O  
   8   4
Direct
  0.130475  0.168038 -0.128912
  0.269706  0.327008  0.166894
  0.617851  0.177235  0.371260
  0.763923  0.331203  0.666278
  0.768135  0.827059 -0.129456
  0.625002  0.673554  0.165909
  0.301701  0.792679  0.369565
  0.161533  0.635395  0.664174
  0.105142  0.341292  0.013884
  0.597056  0.349202  0.516532
  0.601026  0.843521  0.022167
  0.135119  0.806198  0.522088
EA701
 1.0000000000000000
     4.422000   -0.000000   -0.000000
    -0.000232    4.422000   -0.000000
     0.021850   -0.041221    4.172739
 H   O  
   8   4
Direct
  0.111892  0.186268 -0.130372
  0.251709  0.344661  0.165462
  0.610338  0.183379  0.369566
  0.756880  0.336872  0.664594
  0.751152  0.836798 -0.121948
  0.605846  0.685422  0.173494
  0.215024  0.875462  0.374265
  0.075210  0.717824  0.668844
  0.086380  0.358807  0.013362
  0.589761  0.355104  0.515194
  0.583344  0.854740  0.028628
  0.048544  0.888719  0.526936
EA702
 1.0000000000000000
     4.424000    0.000000   -0.000000
    -0.000463    4.424000    0.000000
     0.021538   -0.039944    4.168753
 H   O  
   8   4
Direct
  0.157164  0.729792  0.160796
  0.492290  0.723672  0.069943
  0.684745  0.730021  0.544316
  1.030410  0.727814  0.532253
  0.845751  0.057744 -0.061257
  0.844917  0.403196 -0.057633
  0.345324  0.055105  0.687065
  0.345307  0.400473  0.682526
  0.357869  0.726809  0.255314
  0.861429  0.728081  0.682509
  0.845715  0.230369  0.084543
  0.345348  0.230714  0.828796
EA703
 1.0000000000000000
     4.424000    0.000000   -0.000000
    -0.000463    4.424000    0.000000
     0.021538   -0.039944    4.168753
 H   O  
   8   4
Direct
  0.214985  0.720070 -0.001295
  0.546042  0.736846  0.100460
  0.660570  0.727563  0.616535
  1.006242  0.729188  0.624672
  0.845521  0.057513  0.198172
  0.845835  0.402910  0.195107
  0.344671  0.059113  0.448134
  0.344766  0.404560  0.453487
  0.342252  0.726845  0.188414
  0.829795  0.727367  0.764872
  0.845727  0.232583  0.340633
  0.345102  0.231100  0.594803
EA704
 1.0000000000000000
     4.401000    0.000000   -0.000000
    -0.000307    4.401000    0.000000
     0.016405   -0.030381    4.214859
 H   O  
   8   4
Direct
  0.899562  0.473078  0.516884
  0.607259  0.603309  0.367558
  0.277794  0.467602  0.662828
  0.290704  0.729971  0.900154
  0.132235 -0.121825  0.323776
  0.294023  0.179044  0.409846
  0.773257  0.091562  0.683835
  0.784486  0.100089  1.044930
  0.754539  0.439451  0.346823
  0.249704  0.513121  0.886855
  0.319273 -0.040747  0.413261
  0.784471 -0.040996  0.867015
EA705
 1.0000000000000000
     4.401000    0.000000   -0.000000
    -0.000307    4.401000    0.000000
     0.016405   -0.030381    4.214859
 H   O  
   8   4
Direct
  0.925317  0.455283  0.539582
  0.647313  0.615016  0.391863
  0.257031  0.662921  0.792669
  0.288734  0.393295  1.014768
  0.142060  0.098432  0.200391
  0.232512 -0.004099  0.536843
  0.786590  0.080531  0.679615
  0.766831  0.087474  1.040463
  0.773773  0.434372  0.373659
  0.280495  0.443466  0.790643
  0.278791 -0.036699  0.313045
  0.792597 -0.051996  0.863107
EA706
 1.0000000000000000
     4.422675    0.000000    0.000000
     0.000559    4.422675   -0.000000
     0.020591   -0.040945    4.172059
 H   O  
   8   4
Direct
  0.179557  0.434737  0.305028
  0.178119  0.223704  0.012805
  0.679221  0.433972  0.804225
  0.677466  0.222988  0.511969
  0.827025  0.755500  0.227291
  0.533130  0.897050  0.109204
  0.324433  0.752076  0.727985
  0.034110  0.902123  0.610825
  0.104891  0.239326  0.232362
  0.604395  0.238599  0.731585
  0.608328  0.735650  0.244001
  0.105256  0.738224  0.744772
EA707
 1.0000000000000000
     4.417743    0.000000    0.000000
    -0.000272    4.417743   -0.000000
     0.020675   -0.038846    4.181244
 H   O  
   8   4
Direct
  0.487445  0.166519  0.250214
  0.795224  0.018682  0.165990
  0.608571  0.694727  0.853217
  0.590295  0.469889  0.573144
  0.033132  0.236147  0.733969
  0.113071 -0.103630  0.761965
  0.209877  0.651154  0.210634
 -0.079163  0.468371  0.288754
  0.579212 -0.022697  0.178227
  0.507943  0.508768  0.785981
  0.041825  0.047568  0.612286
  0.039180  0.547458  0.111433
EA708
 1.0000000000000000
     4.396667    0.000000    0.000000
    -0.000178    4.396667   -0.000000
     0.015922   -0.030091    4.222629
 H   O  
   8   4
Direct
  0.307198  0.186154  0.226306
  0.198176  0.518943  0.200238
  1.084895  0.845682  0.050663
  0.742565  0.881236  0.101256
  0.582323  0.877442  0.558174
  0.237676  0.897541  0.601662
  0.794059  0.449975  1.112373
  0.698797  0.311588  0.790272
  0.337071  0.371716  0.105503
  0.928395  0.829407  0.213261
  0.420399  0.822460  0.705105
  0.874298  0.347633  0.925191
EA709
 1.0000000000000000
     4.422000   -0.000000    0.000000
    -0.000232    4.422000    0.000000
     0.021850   -0.041221    4.172739
 H   O  
   8   4
Direct
  0.607099  0.248920  0.822059
  0.271133  0.153478  0.840299
  0.411039  0.771948  0.242029
  0.323826  0.631027  0.563163
  0.916053  0.787416  0.746280
  0.834771  0.654502  1.072845
  1.099809  0.056699  0.363348
  0.858551  0.263096  0.213454
  0.472938  0.094226  0.906928
  0.461233  0.604528  0.382004
  0.944009  0.607657  0.875705
  0.883118  0.076225  0.331332
EA710
 1.0000000000000000
     4.422000   -0.000000    0.000000
    -0.000232    4.422000    0.000000
     0.021850   -0.041221    4.172739
 H   O  
   8   4
Direct
  0.264343  0.609625  0.553420
  0.318759  0.294025  0.696643
  0.765319 -0.154112  0.662898
  0.763041  0.109155  0.903945
  0.460904 -0.043392  0.407573
  0.376143  0.064243  0.068488
  0.847198  0.346213  0.258339
  0.988504  0.664195  0.226315
  0.381138  0.504322  0.714464
  0.790501  0.064413  0.676746
  0.302761  0.057980  0.288598
  0.804793  0.560094  0.291183
EA711
 1.0000000000000000
     4.422000   -0.000000    0.000000
    -0.000232    4.422000    0.000000
     0.021850   -0.041221    4.172739
 H   O  
   8   4
Direct
  0.871327  0.628560  0.402111
  0.589539  0.625367  0.184526
  0.711285 -0.007869  0.897800
  0.747415  0.266490  0.674289
  0.455676  0.207233  0.256082
  0.149630  0.040812  0.291543
  0.357322  0.620953  0.874311
  0.380424  0.653687  0.506846
  0.796475  0.552406  0.197976
  0.799299  0.053704  0.694768
  0.324711  0.060413  0.150376
  0.406812  0.509504  0.679197
EA712
 1.0000000000000000
     4.411736    0.000000    0.000000
    -0.000269    4.411736   -0.000000
     0.019210   -0.035965    4.193245
 H   O  
   8   4
Direct
  0.016938  0.149858  0.513164
  0.188380 -0.077774  0.724532
  0.157944  0.696116  0.173118
  0.041612  0.379098  0.072814
  0.659150  0.696218  0.672221
  0.538816  0.379133  0.577476
  0.509860  0.151513  0.015887
  0.687854 -0.075830  0.221631
  0.009900  0.051661  0.719689
  0.006567  0.543630  0.224244
  0.506813  0.545831  0.727056
  0.507723  0.051492  0.221479
EA713
 1.0000000000000000
     4.422000    0.000000    0.000000
     0.000421    4.422000   -0.000000
     0.020982   -0.041338    4.173240
 H   O  
   8   4
Direct
  0.693242  0.788495  0.934853
  0.370424  0.678808  0.853364
  0.527020  0.168062  0.552781
  0.403408  0.303891  0.243880
  1.031948  0.184397  1.054732
  0.918339  0.318464  0.740799
  0.101010  0.900164  0.311944
  0.017940  0.566224  0.370121
  0.502046  0.854829  0.844669
  0.480211  0.361057  0.454135
  0.959087  0.372223  0.962899
 -0.062933  0.755141  0.289669
EA714
 1.0000000000000000
     4.413735   -0.000000    0.000000
    -0.000381    4.413735    0.000000
     0.019368   -0.035939    4.188856
 H   O  
   8   4
Direct
  1.016850  0.597313  0.343574
  0.816621  0.553387  0.050426
  0.499062  0.600384  0.854427
  0.309502  0.566134  0.551907
  0.463392  0.027546  0.169105
  0.124333 -0.008184  0.253511
  0.891131  0.875707  0.597886
  0.728724  1.062912  0.861515
  0.973313  0.452693  0.173207
  0.482761  0.477992  0.660635
  0.305648  0.104519  0.311459
  0.924960  1.031105  0.759906
EA715
 1.0000000000000000
     4.190870   -0.000000    0.000000
    -0.000139    4.159193    0.000000
     0.019134   -0.036151    4.680249
 H   O  
   8   4
Direct
  0.477652 -0.116657  0.198194
  0.573345  0.234061  0.130363
  0.668425  0.538775  0.556618
  0.388943  0.574425  0.771618
  0.975803 -0.118368  0.696294
  1.071397  0.232887  0.629992
  0.171377  0.545270  0.052606
 -0.108434  0.573590  0.268037
  0.450720  0.052200  0.057799
  0.436895  0.536403  0.570338
  0.948873  0.051260  0.556614
 -0.060010  0.536771  0.066673
EA716
 1.0000000000000000
     4.423876   -0.000000    0.000000
    -0.000453    4.423876   -0.000000
     0.021557   -0.040000    4.169000
 H   O  
   8   4
Direct
  0.611062  0.960488  0.661863
  0.453389  0.711387  0.458806
  0.400684  0.415576  0.172252
  0.648313  0.405861 -0.088984
  1.034943  0.706634 -0.112438
  0.795012  0.726870  0.156166
  0.845401  0.460635  0.586504
  1.125153  0.285564  0.463834
  0.555223  0.747666  0.662177
  0.498665  0.281445  0.017892
  0.954113  0.841903  0.051694
  0.921258  0.344340  0.403923
EA717
 1.0000000000000000
     4.422000   -0.000000    0.000000
    -0.000232    4.422000    0.000000
     0.021850   -0.041221    4.172739
 H   O  
   8   4
Direct
  0.153385  0.402064  0.212495
 -0.141308  0.225748  0.143256
  0.598228  0.716388  0.287416
  0.416424  0.913205  0.052768
  0.096900  0.714597  0.785182
 -0.087710  0.916048  0.557435
  0.655733  0.400673  0.707345
  0.358587  0.226572  0.644196
  0.063678  0.256648  0.064706
  0.571541  0.757429  0.060906
  0.067223  0.759807  0.560084
  0.562778  0.254877  0.562339
EA718
 1.0000000000000000
     4.422558   -0.000000    0.000000
    -0.000296    4.422558    0.000000
     0.021866   -0.041050    4.171904
 H   O  
   8   4
Direct
  0.529714  0.511687  0.165761
  0.323001  0.471207 -0.129389
  1.041874  0.403463  0.423067
  0.705680  0.478041  0.483672
  1.044772  0.909706  0.920141
  0.707377  0.980460  0.980625
  0.337052  0.825395  0.517697
  0.505980  1.131771  0.537941
  0.321586  0.532070  0.095440
  0.899059  0.459844  0.591143
  0.903665  0.978343  1.084841
  0.317980  1.031790  0.598260
EA719
 1.0000000000000000
     4.413975    0.000000    0.000000
    -0.000308    4.413975    0.000000
     0.019628   -0.036732    4.188794
 H   O  
   8   4
Direct
  0.142323  0.744312  0.377947
  0.001371  0.726544  0.711896
  0.410708  0.151930  0.402081
  0.755774  0.207265  0.392177
  0.052523  0.121738  0.847228
  0.193127  0.348681  1.087581
  0.638955  0.753746 -0.121806
  0.498279  0.724807  0.211168
 -0.050493  0.764265  0.490126
  0.572097  0.264444  0.506649
  0.002622  0.253823  1.027250
  0.454701  0.798641 -0.001759
EA720
 1.0000000000000000
     4.422941    0.000000   -0.000000
    -0.000341    4.422941    0.000000
     0.021877   -0.040933    4.171331
 H   O  
   8   4
Direct
  0.771948  0.686543  0.596448
  0.945038  0.941192  0.424223
  0.383009  0.857900  0.207896
  0.365667  0.876645 -0.161449
  0.948252  0.426726  0.116090
  0.628967  0.362194 -0.006622
  0.450281  0.412886  0.607574
  0.135331  0.342131  0.476063
  0.811462  0.770220  0.385720
  0.289466  0.764013  0.021095
  0.804586  0.262591  0.083619
  0.297458  0.254420  0.601815
EA721
 1.0000000000000000
     4.423557    0.000000    0.000000
    -0.000429    4.423557    0.000000
     0.021607   -0.040146    4.169637
 H   O  
   8   4
Direct
  0.021635  0.125551  0.233633
  0.036805  0.208082  0.590303
  0.529238  0.836268  0.357878
  0.527579  0.500739  0.441794
  0.029805  0.837052  0.858829
  0.028010  0.501452  0.942444
  0.519643  0.127549  0.733188
  0.541917  0.204194  1.090492
  0.165098  0.166795  0.404817
  0.664004  0.666556  0.393277
  0.164491  0.667267  0.894094
  0.666662  0.164461  0.901987
EA722
 1.0000000000000000
     4.422000   -0.000000    0.000000
    -0.000232    4.422000    0.000000
     0.021850   -0.041221    4.172739
 H   O  
   8   4
Direct
  0.343455  0.722990  0.603889
  0.341619  0.963726  0.875025
  0.747146  1.045382  0.257861
  0.902262  0.806862  0.463566
  0.482587  0.455247  0.210122
  0.234469  0.224946  0.299561
  0.956276  0.602710  0.797710
  0.793823  0.293121  0.790512
  0.250580  0.913005  0.669804
  0.938876  0.940146  0.283151
  0.269953  0.409134  0.179036
  0.993257  0.385680  0.798446
EA723
 1.0000000000000000
     4.422000   -0.000000    0.000000
    -0.000232    4.422000    0.000000
     0.021850   -0.041221    4.172739
 H   O  
   8   4
Direct
  0.195208  0.383057  0.112308
 -0.017906  0.449887  0.399025
  0.692743  0.386354  0.613337
  0.482770  0.448633  0.903809
  0.457517  0.875840  0.139888
  0.324801  0.714063  0.435072
  1.066726  1.073227  0.863445
  0.815714  0.862256  0.735083
  0.162718  0.337756  0.337433
  0.663164  0.338051  0.838197
  0.298543  0.890841  0.300725
  1.031991  0.871793  0.776128
EA724
 1.0000000000000000
     4.422000    0.000000    0.000000
     0.000433    4.422000   -0.000000
     0.020967   -0.041340    4.173249
 H   O  
   8   4
Direct
  0.430173  0.789683  0.756087
  0.693042  0.974653  0.900474
  0.662550  0.413792  0.441187
  0.352188  0.566957  0.449887
  1.165055  0.404915  0.936722
  0.857419  0.563762  0.935679
  0.075905  0.784420  0.423265
  0.097852  1.125658  0.349363
  0.513585  0.992835  0.768416
  0.475419  0.429978  0.320599
  0.968948  0.399976  0.831639
 -0.027263  0.947696  0.313502
EA725
 1.0000000000000000
     4.421567    0.000000    0.000000
    -0.000232    4.421567   -0.000000
     0.022117   -0.041713    4.173598
 H   O  
   8   4
Direct
  0.275902  0.416197  0.160918
  0.133696  0.130319  0.308138
  0.276048  0.916940  0.661654
  0.133321  0.631224  0.808725
  0.928836 -0.048955  0.908601
  0.784618  0.214849  0.730224
  0.958397  0.597491  0.482679
  0.865580  0.514878  0.136076
  0.322585  0.210062  0.223892
  0.322387  0.710744  0.724662
  0.759221  0.091300  0.920259
  0.803770  0.633946  0.322419
EA726
 1.0000000000000000
     3.442731   -0.000000   -0.000000
     0.000000    6.885461   -0.000000
     0.000000    0.000000    3.442731
 H   O  
   8   4
Direct
  0.678628  0.179457  0.474232
  0.411732  0.355583  0.509731
  0.678628  0.679457  0.474232
  0.411732  0.855583  0.509731
 -0.083478 -0.104811 -0.039587
  0.173605  0.074730 -0.000301
 -0.083478  0.395189 -0.039587
  0.173605  0.574730 -0.000301
  0.409640  0.214960  0.516037
  0.409640  0.714960  0.516037
 -0.090127  0.030081  0.039888
 -0.090127  0.530081  0.039888
EA727
 1.0000000000000000
     2.891707   -0.000000   -0.000000
     0.000000    5.312934   -0.000000
    -1.443910    0.000000    5.311906
 H   O  
   8   4
Direct
  0.064494  0.174151  0.086169
  0.599443  0.216431  0.200962
  0.064494  0.325849  0.586169
  0.599443  0.283569  0.700962
  0.710407  0.977547  0.865794
  0.570967  0.724720  0.735456
  0.710407  0.522453  0.365794
  0.570967  0.775280  0.235456
  0.336054  0.108917  0.213270
  0.336054  0.391083  0.713270
  0.718636  0.798233  0.898351
  0.718636  0.701767  0.398351
EA728
 1.0000000000000000
     5.406446   -0.000000   -0.000000
     0.000000    5.406446   -0.000000
     0.000000    0.000000    2.792000
 H   O  
   8   4
Direct
  0.498474  0.616378  0.329716
  0.572196  0.395144  0.637908
  0.383622  0.001526  0.579716
  0.604856 -0.072196  0.887908
 -0.001526  0.616378  0.079716
  0.072196  0.395144  0.387908
 -0.116378  0.001526 -0.170284
  0.104856 -0.072196  0.137908
  0.429330  0.488478  0.532375
  0.511522  0.070670  0.782375
 -0.070670  0.488478  0.282375
  0.011522  0.070670  0.032375
EA729
 1.0000000000000000
     4.217352   -0.000000    0.000000
     0.000000    3.908528    0.000000
     0.000000    0.000000    4.950921
 H   O  
   8   4
Direct
  0.861663  0.533254  0.168523
  0.518446  0.510728  0.264751
  0.453093  0.533254  0.668523
  0.109876  0.510728  0.764751
  0.157378  0.059757 -0.081477
 -0.185839  0.037231  0.014751
  0.157378  0.059757  0.418523
 -0.185839  0.037231  0.514751
  0.732746  0.450718  0.316726
  0.324176  0.450718  0.816726
  0.028461 -0.022779  0.066726
  0.028461 -0.022779  0.566726
EA730
 1.0000000000000000
     4.337569    0.000000    0.000000
     0.000000    4.337569    0.000000
     0.000000    0.000000    4.337569
 H   O  
   8   4
Direct
  0.375022  0.631946  0.505415
  0.557436  0.338134  0.440342
  0.375022  0.131946  0.005415
  0.557436 -0.161866 -0.059658
 -0.124978  0.131946  0.505415
  0.057436 -0.161866  0.440342
 -0.124978  0.631946  0.005415
  0.057436  0.338134 -0.059658
  0.567543  0.529920  0.554243
  0.567543  0.029920  0.054243
  0.067543  0.029920  0.554243
  0.067543  0.529920  0.054243
EA731
 1.0000000000000000
     4.868756    0.000000    0.000000
     2.434378    4.216467    0.000000
     2.434378    1.405489    3.975323
 H   O  
   8   4
Direct
  0.127013  0.332915  0.391843
  0.281455  0.189032  0.110913
  0.377013  0.582915  0.641843
  0.531455  0.439032  0.360913
  0.627013  0.832915  0.891843
  0.781455  0.689032  0.610913
 -0.122987  0.082915  0.141843
  0.031455 -0.060968 -0.139087
  0.341532  0.228053  0.247244
  0.591532  0.478053  0.497244
  0.841532  0.728053  0.747244
  0.091532 -0.021947 -0.002756
EA732
 1.0000000000000000
     4.414000   -0.000000    0.000000
    -0.000385    4.414000    0.000000
     0.019375   -0.035969    4.188801
 H   O  
   8   4
Direct
  1.013820  0.577502  0.367438
  0.879353  0.743463  0.076977
  0.353750  0.568245  0.819919
  0.376261  0.774743  0.531100
  0.529062  0.065904  0.081170
  0.182744  0.071619  0.087937
  0.826227  0.939543  0.563948
  0.709016  1.239710  0.711635
  0.841786  0.577232  0.223061
  0.369073  0.561983  0.588153
  0.357688  0.065082  0.227452
  0.869403  1.089256  0.729556
EA733
 1.0000000000000000
     4.422000   -0.000000   -0.000000
    -0.000232    4.422000   -0.000000
     0.021850   -0.041221    4.172739
 H   O  
   8   4
Direct
  0.854971  0.653159  0.418846
  0.577758  0.708237  0.202412
  0.660880  0.031565  0.920881
  0.784268  0.196920  0.623547
  0.418166  0.294623  0.262102
  0.133735  0.128380  0.385185
  0.235066  0.761119  0.932780
  0.237398  0.857372  0.583572
  0.748505  0.573043  0.233120
  0.827250  0.030992  0.767511
  0.296077  0.114560  0.227548
  0.267622  0.681675  0.717657
EA734
 1.0000000000000000
     4.422000   -0.000000   -0.000000
    -0.000232    4.422000   -0.000000
     0.021850   -0.041221    4.172739
 H   O  
   8   4
Direct
  0.891538  0.598749  0.396823
  0.624490  0.806099  0.305037
  0.543063  0.187256  0.856265
  0.690935  0.332939  0.559576
  0.375259  0.238937  0.259822
  0.086536  0.108751  0.416356
  0.242729  0.724698  0.907066
  0.224930  0.631583  0.555534
  0.716542  0.610874  0.257261
  0.717157  0.171671  0.713669
  0.229920  0.074789  0.242148
  0.184810  0.556319  0.769536
EA735
 1.0000000000000000
     4.422000   -0.000000   -0.000000
    -0.000232    4.422000   -0.000000
     0.021850   -0.041221    4.172739
 H   O  
   8   4
Direct
  0.139940  0.439801  0.280972
 -0.141664  0.265914  0.401009
  0.649069  0.760072  0.330590
  0.345934  0.853646  0.177005
  0.145306  0.703003  0.806067
 -0.130501  0.873673  0.669887
  0.589637  0.393155  0.801585
  0.319677  0.170749  0.807611
  0.006980  0.271375  0.228564
  0.493122  0.690582  0.183703
 -0.033159  0.676514  0.673293
  0.501485  0.221941  0.687702
EA736
 1.0000000000000000
     4.422000   -0.000000   -0.000000
    -0.000232    4.422000   -0.000000
     0.021850   -0.041221    4.172739
 H   O  
   8   4
Direct
  0.173493  0.339182  0.166550
 -0.121764  0.202132  0.302721
  0.628108  0.717214  0.353029
  0.365902  0.926662  0.251932
  0.107725  0.782843  0.896910
 -0.182525  0.899372  0.733195
  0.686008  0.362442  0.611442
  0.426598  0.301460  0.852411
  0.041283  0.163928  0.150332
  0.484363  0.752819  0.181802
 -0.010091  0.765708  0.701287
  0.532544  0.214642  0.668552
EA737
 1.0000000000000000
     4.424000    0.000000    0.000000
    -0.000463    4.424000    0.000000
     0.021538   -0.040017    4.168752
 H   O  
   8   4
Direct
  0.581144  0.921890  0.666314
  0.296594  0.761439  0.533644
  0.458533  0.439494  0.315781
  0.593831  0.280190  0.017732
  0.993256  0.620551 -0.026696
  0.794969  0.714165  0.262630
  0.799378  0.467022  0.655342
  1.089076  0.328394  0.507020
  0.469799  0.732389  0.672829
  0.424479  0.272805  0.166967
  0.976315  0.770291  0.144845
  0.918418  0.282481  0.646458
EA738
 1.0000000000000000
     4.424000    0.000000    0.000000
    -0.000463    4.424000    0.000000
     0.021538   -0.040017    4.168752
 H   O  
   8   4
Direct
  0.637644  0.971305  0.663573
  0.354180  0.871119  0.474476
  0.459035  0.448491  0.325019
  0.603041  0.296733  0.027162
  0.921277  0.643650  0.072684
  0.830391  0.844560  0.361451
  0.802639  0.426880  0.653143
  1.090689  0.264676  0.530730
  0.481209  0.816926  0.654816
  0.431092  0.283613  0.172492
  0.976514  0.827924  0.187287
  0.961539  0.289354  0.718805
EA739
 1.0000000000000000
     4.422636    0.000000    0.000000
    -0.000305    4.422636    0.000000
     0.021751   -0.040814    4.171471
 H   O  
   8   4
Direct
  0.089165  1.023569  0.936618
  0.254396  0.720330  0.945639
  0.589701  1.024338  0.437262
  0.754829  0.721053  0.446603
  0.568220  0.318241  1.088102
  0.777945  0.422479  0.818146
  0.071256  0.321313  0.588701
  0.278977  0.417619  0.314089
  0.085657  0.821341  0.843632
  0.586173  0.822057  0.344442
  0.585770  0.321385  0.855446
  0.086385  0.318949  0.355818
EA740
 1.0000000000000000
     4.422000   -0.000000    0.000000
    -0.000232    4.422000    0.000000
     0.021850   -0.041221    4.172739
 H   O  
   8   4
Direct
  0.593197  0.638560  0.777859
  0.882242  0.632888  0.984071
  0.347381  0.646136  0.365796
  0.003126  0.588322  0.366770
  0.434502  0.077179  0.694103
  0.233018  0.040473  0.394692
  0.938084  0.076761  0.190500
  0.731315  0.039721 -0.104708
  0.727186  0.503089  0.891835
  0.188766  0.537089  0.252765
  0.442830  0.048396  0.462865
  0.942294  0.047228 -0.040709
EA741
 1.0000000000000000
     4.423929    0.000000    0.000000
    -0.000461    4.423929   -0.000000
     0.021528   -0.039931    4.168894
 H   O  
   8   4
Direct
  0.651661  0.284811  0.196077
  0.795894  0.580170  0.311107
  0.875645  0.850169  0.785807
  0.573198  1.012407  0.744274
  0.149532  0.579103  0.235003
  0.269038  0.905908  0.208936
  0.149856  0.077473  0.739965
  0.271524  0.402969  0.710625
  0.757358  0.462133  0.117793
  0.757302  0.959195  0.628282
  0.158013  0.751025  0.091636
  0.159977  0.247682  0.594340
EA742
 1.0000000000000000
     4.423435    0.000000    0.000000
    -0.000398    4.423435    0.000000
     0.021626   -0.040357    4.169879
 H   O  
   8   4
Direct
  1.019221  0.856609  0.350641
  0.740536  0.788754  0.139890
  0.979785  0.431802  0.641786
  0.780404  0.214109  0.838799
  0.474725  0.436841  0.143158
  0.280069  0.212688  0.337301
  0.519909  0.855111  0.850383
  0.237696  0.791625  0.643372
  0.813869  0.923089  0.308207
  0.822532  0.427441  0.805363
  0.318148  0.427254  0.307100
  0.314678  0.924055  0.811560
EA743
 1.0000000000000000
     4.418038   -0.000000    0.000000
    -0.000307    4.418038    0.000000
     0.020662   -0.038842    4.180693
 H   O  
   8   4
Direct
  0.196212  0.522114  0.685706
  0.329883  0.564870  1.020222
  0.833976  0.643149  0.119331
  0.726405  0.405054  0.362464
  0.834485  0.146291  0.617228
  0.723547 -0.092516  0.858271
  0.237279 -0.107221  0.202181
  0.408018  0.109219  0.431174
  0.152838  0.485652  0.910120
  0.780891  0.617520  0.343506
  0.778467  0.119859  0.840448
  0.206304  0.056771  0.355789
EA744
 1.0000000000000000
     4.422713    0.000000    0.000000
    -0.000314    4.422713   -0.000000
     0.021739   -0.040765    4.171316
 H   O  
   8   4
Direct
  0.229129  0.248036  0.376187
  0.223256  0.249502  0.742519
  0.710520  0.916486  0.567897
  0.746310  0.572805  0.571925
  0.205168  0.918582  0.072246
  0.248213  0.575359  0.070169
  0.728680  0.247454 -0.124602
  0.722723  0.248609  0.241725
  0.091558  0.231679  0.557504
  0.593029  0.730358  0.566688
  0.091794  0.729931  0.067182
  0.591055  0.230945  0.056669
EA745
 1.0000000000000000
     4.423012   -0.000000    0.000000
    -0.000349    4.423012   -0.000000
     0.021692   -0.040575    4.170722
 H   O  
   8   4
Direct
  0.397192  0.623483 -0.045730
  0.177276  0.483525  0.199383
  0.897896  0.373404  0.702244
  1.100889  0.630103  0.584351
  0.650290 -0.006989  0.249968
  0.970517  0.133155  0.236277
  0.514728 -0.011649  0.771226
  0.395999  0.186799  0.497779
  0.390978  0.494417  0.141933
  0.899347  0.590781  0.668405
  0.830650  0.007066  0.115429
  0.332306  0.085207  0.692796
EA746
 1.0000000000000000
     4.416131    0.000000   -0.000000
    -0.000402    4.416131    0.000000
     0.019839   -0.036821    4.184516
 H   O  
   8   4
Direct
  0.808622  0.291394  0.612784
  0.876437  0.300038  0.254464
  0.371809  0.968942  0.439991
  0.308775  0.629706  0.409058
  0.871342  0.968174  0.939350
  0.808256  0.628974  0.908083
  0.302753  0.290352  1.113928
  0.378601  0.303356  0.757231
  0.711472  0.323467  0.407526
  0.210030  0.825819  0.395425
  0.709532  0.825111  0.894624
  0.210492  0.325414  0.906701
EA747
 1.0000000000000000
     4.420329    0.000000    0.000000
    -0.000264    4.420329   -0.000000
     0.021350   -0.040219    4.176091
 H   O  
   8   4
Direct
  0.728628  0.637253  0.036598
  0.615429  0.862795  0.295407
  0.650504  0.393288  0.584105
  0.867214  0.123357  0.625643
  0.230541  0.789041  0.551046
  0.183633  0.474699  0.703298
  0.138416  0.390767  0.083574
  0.372846  0.132636  0.109845
  0.549192  0.744998  0.110460
  0.701759  0.231194  0.730068
  0.329386  0.638520  0.682801
  0.207258  0.231213  0.224393
EA748
 1.0000000000000000
     4.423370    0.000000    0.000000
    -0.000366    4.423370   -0.000000
     0.021731   -0.040651    4.170635
 H   O  
   8   4
Direct
  0.569221  0.048597  0.480362
  0.479968  0.377003  0.418847
  0.628401  0.767258  1.074431
  0.420660  0.662243  0.803734
  1.127985  0.766383  0.573595
  0.920076  0.661642  0.302931
  1.075135  0.049533  0.979107
  0.977062  0.375174  0.918041
  0.423042  0.202173  0.545354
  0.421938  0.703615  1.033010
  0.921454  0.702883  0.532232
  0.924719  0.198843  1.044328
EA749
 1.0000000000000000
     4.422656   -0.000000    0.000000
    -0.000308    4.422656    0.000000
     0.021747   -0.040801    4.171430
 H   O  
   8   4
Direct
  0.842920  0.308914  0.355800
  0.735378  0.423635  0.026706
  0.342078  0.304972  0.853743
  0.237774  0.425340  0.525841
  0.632625  0.744455  0.639130
  0.888048  0.811455  0.401537
  0.138271  0.742496  0.140977
  0.387150  0.811201 -0.103260
  0.710593  0.259065  0.177465
  0.210382  0.258963  0.673810
  0.689105  0.882389  0.468520
  0.189041  0.880379 -0.031616
EA750
 1.0000000000000000
     4.415437   -0.000000    0.000000
    -0.000396    4.415437   -0.000000
     0.019688   -0.036544    4.185910
 H   O  
   8   4
Direct
  1.069926  0.559494  0.446722
  0.846491  0.527509  0.724296
  0.569529  0.558669 -0.053987
  0.345877  0.526852  0.223412
  0.592367  0.009801  0.706406
  0.325949  0.070771  0.484190
  1.089842  0.014306  0.211421
  0.826452  0.068828 -0.017125
  0.966411  0.677217  0.611165
  0.465937  0.676491  0.110342
  0.470427  0.174081  0.621889
  0.967766  0.175741  0.121275
EA751
 1.0000000000000000
     4.423878    0.000000    0.000000
    -0.000449    4.423878    0.000000
     0.021557   -0.040022    4.168997
 H   O  
   8   4
Direct
  0.011150  0.774897  0.602217
 -0.034174  0.447520  0.719117
  0.511939  0.776994  0.104105
  0.458817  0.449676  0.217678
  0.528068  0.098529  0.485294
  0.443191  0.124780  0.844557
  0.031810  0.096848 -0.016825
 -0.059248  0.124558  0.340595
  0.118968  0.602657  0.688581
  0.615408  0.601833  0.189743
  0.614247  0.099203  0.699430
  0.114287  0.098768  0.198934
EA752
 1.0000000000000000
     4.423251    0.000000    0.000000
    -0.000116    4.423251   -0.000000
     0.021330   -0.040481    4.170620
 H   O  
   8   4
Direct
  0.897276  0.503759  0.448779
  0.599131  0.663501  0.529116
  0.396337  0.493137  0.938382
  0.101868  0.657605  1.022960
  0.794691  0.132267  0.083424
  0.490418  0.143988  0.258324
  0.294202  0.131689  0.582654
 -0.010104  0.143092  0.757504
  0.690522  0.525035  0.373709
  0.180974  0.493420  0.890432
  0.579113  0.108446  0.047634
  0.078638  0.107712  0.546806
EA753
 1.0000000000000000
     4.417517    0.000000    0.000000
    -0.000355    4.417517   -0.000000
     0.020344   -0.037969    4.182122
 H   O  
   8   4
Direct
  1.032330  0.205234  0.223091
  0.927756  0.520097  0.108660
  0.438329  0.706819 -0.065133
  0.307202  0.917135  0.192748
  0.683733  0.725644  0.576927
  0.922642  0.946848  0.713165
  0.524948  0.331009  0.806886
  0.340868  0.487223  0.549072
  0.878951  0.360098  0.258806
  0.440343  0.743970  0.164108
  0.895517  0.739027  0.638715
  0.330409  0.320946  0.699173
EA754
 1.0000000000000000
     4.423339   -0.000000    0.000000
    -0.000387    4.423339    0.000000
     0.021641   -0.040365    4.170069
 H   O  
   8   4
Direct
  0.187329  0.617056  1.013847
  0.005381  0.866355  0.852558
  0.685159  0.619597  0.519959
  0.505041  0.865285  0.349797
  0.729663  0.273656  0.812095
  0.460879  0.215107  1.034685
  0.229211  0.272769  0.311327
 -0.039684  0.214515  0.533852
  0.146412  0.833064  1.026878
  0.644238  0.835816  0.526613
  0.642664  0.337280  1.016202
  0.142195  0.336551  0.515386
EA755
 1.0000000000000000
     4.422617    0.000000    0.000000
    -0.000303    4.422617   -0.000000
     0.021754   -0.040849    4.171508
 H   O  
   8   4
Direct
  0.700501  0.651545  0.773590
  0.545076  0.339723  0.799611
  0.269676  0.965174  0.687656
 -0.019160  1.020407  0.889920
  0.107016  0.251607  0.422664
 -0.007723  0.580182  0.407349
  0.562659  0.171920  0.311115
  0.677492 -0.155886  0.336399
  0.697213  0.467973  0.899729
  0.192959  0.965330  0.906534
  0.023882  0.399764  0.276551
  0.635060  0.024522  0.463813
EA756
 1.0000000000000000
     4.422774   -0.000000   -0.000000
    -0.000321    4.422774    0.000000
     0.021729   -0.040726    4.171196
 H   O  
   8   4
Direct
  0.236543  0.414740  0.250876
  0.076716  0.119203  0.351818
  0.742665  0.413614  0.760633
  0.578650  0.117936  0.853668
  0.499415  0.616497  0.502359
  0.605484  0.418025  0.221709
 -0.001228  0.615727  1.001497
  0.105146  0.417301  0.720944
  0.224566  0.199671  0.201791
  0.729425  0.199373  0.707567
  0.608894  0.625633  0.300177
  0.108390  0.624920  0.799388
EA757
 1.0000000000000000
     4.419191   -0.000000    0.000000
    -0.000285    4.419191   -0.000000
     0.021009   -0.039536    4.178376
 H   O  
   8   4
Direct
  0.754687  0.212300  0.778734
  0.653710  0.492667  0.588256
  0.637054  0.680390  0.195477
  0.604110  1.025257  0.197363
  0.148759  0.815842  0.036476
  0.162565  0.878816  0.400953
  0.210479  0.393387  0.577770
 -0.012468  0.584851  0.781803
  0.578703  0.335520  0.729976
  0.573268  0.848707  0.331031
  0.023008  0.834037  0.227374
  0.111282  0.402814  0.785898
EA758
 1.0000000000000000
     4.422067    0.000000    0.000000
     0.000432    4.422067    0.000000
     0.021000   -0.041332    4.173574
 H   O  
   8   4
Direct
  0.366585  0.750555  0.066001
  0.171974  0.516122  0.238158
  0.808435  0.016531  0.010686
  0.728510  0.251417  0.268471
  0.308798  0.017176  0.511518
  0.229138  0.252231  0.769224
  0.871116  0.745197  0.565216
  0.669704  0.517043  0.737491
  0.161736  0.670264  0.073874
  0.660634  0.172128  0.063072
  0.161126  0.172878  0.563904
  0.664159  0.670478  0.572240
EA759
 1.0000000000000000
     5.303456   -0.000000    0.000000
     0.000000    5.547611   -0.000000
     0.499078   -0.000000    2.773794
 H   O  
   8   4
Direct
  0.799904  0.404891  0.281295
  0.808190  0.588046 -0.125341
  0.299904  0.095109  0.281295
  0.308190 -0.088046 -0.125341
  0.258274  0.365896  0.978777
  0.258131  0.639651  0.924433
  0.758274  0.134104  0.978777
  0.758131 -0.139651  0.924433
  0.690506  0.507062  0.126436
  0.190506 -0.007062  0.126436
  0.184995  0.494453  0.814400
  0.684995  0.005547  0.814400
EA760
 1.0000000000000000
     2.943781   -0.000000   -0.000000
     0.000000    5.624977   -0.000000
     0.000000    0.000000    4.928478
 H   O  
   8   4
Direct
  0.882495  0.739991  0.348401
  0.509881  0.927036  0.319882
  0.117505  0.260009  0.651599
  0.490119  0.072964  0.680118
  0.509884  0.279571  0.050644
  0.307547  0.362467  0.319648
  0.490116  0.720429  0.949356
  0.692453  0.637533  0.680352
  0.561824  0.757273  0.309117
  0.438176  0.242727  0.690883
  0.228370  0.282262  0.152308
  0.771630  0.717738  0.847692
EA761
 1.0000000000000000
     5.573343   -0.000000   -0.000000
     0.000000    5.573343   -0.000000
     0.000000    0.000000    2.627287
 H   O  
   8   4
Direct
  0.443398  0.080799  0.534798
  0.531626 -0.127185  0.863198
 -0.080799  0.556602  0.034798
  0.127185  0.468374  0.363198
  0.443398  0.580799  0.284798
  0.531626  0.372815  0.613198
 -0.080799  0.056602 -0.215202
  0.127185 -0.031626  0.113198
  0.524976  0.046386  0.852004
 -0.046386  0.475024  0.352004
  0.524976  0.546386  0.602004
 -0.046386 -0.024976  0.102004
EA762
 1.0000000000000000
     4.732824   -0.000000   -0.000000
     1.577608    4.462149    0.000000
     1.577608   -2.231075    3.864334
 H   O  
   8   4
Direct
  0.103451  0.417046  0.297274
 -0.014554  0.502804  0.671944
  0.603451 -0.082954  0.297274
  0.485446  0.002804  0.671944
  0.603451  0.417046  0.797274
  0.485446  0.502804  1.171944
  0.103451 -0.082954 -0.202726
 -0.014554  0.002804  0.171944
 -0.088897  0.580150  0.530782
  0.411103  0.080150  0.530782
  0.411103  0.580150  1.030782
 -0.088897  0.080150  0.030782
EA763
 1.0000000000000000
     3.994455   -0.000000    0.000000
     0.000000    3.994455    0.000000
     1.997227   -1.997227    5.114746
 H   O  
   8   4
Direct
  0.309781  0.197579  0.142340
  0.511893  0.112290  0.299382
  0.809781  0.697579  0.142340
  1.011893  0.612290  0.299382
  0.525508  0.981852  0.710886
  0.727620  0.896563  0.867927
  0.025508  0.481852  0.710886
  0.227620  0.396563  0.867927
  0.354736  0.013722  0.205459
  0.854736  0.513722  0.205459
  0.570463  0.797995  0.774005
  0.070463  0.297995  0.774005
EA764
 1.0000000000000000
     4.623999    0.000000    0.000000
     0.000000    4.623999    0.000000
     0.000000    0.000000    3.816837
 H   O  
   8   4
Direct
  0.620744  0.541238  0.637117
  0.415533  0.529854  0.324173
  0.120744  0.041238  0.637117
 -0.084467  0.029854  0.324173
  0.120744  0.541238  0.137117
 -0.084467  0.529854 -0.175827
  0.620744  0.041238  0.137117
  0.415533  0.029854 -0.175827
  0.463723  0.428908  0.538710
 -0.036277 -0.071092  0.538710
 -0.036277  0.428908  0.038710
  0.463723 -0.071092  0.038710
EA765
 1.0000000000000000
     4.624000   -0.000000   -0.000000
     0.000000    4.624000   -0.000000
     0.000000    0.000000    3.817000
 H   O  
   8   4
Direct
  0.659222  0.479071  0.588748
  0.452571  0.683216  0.393185
  0.063992 -0.119352  0.583314
  0.015769  0.183402  0.427399
  0.140879  0.566093  0.189063
 -0.031297  0.517576 -0.150761
  0.502928  0.013115  0.131643
  0.457194  0.116440 -0.248889
  0.460844  0.494983  0.505295
 -0.079358 -0.001061  0.465308
  0.008587  0.432208  0.076453
  0.391822 -0.026029 -0.079286
EA766
 1.0000000000000000
     4.422000   -0.000000   -0.000000
    -0.000232    4.422000   -0.000000
     0.021850   -0.041221    4.172739
 H   O  
   8   4
Direct
  0.896698  0.484568  0.315921
  0.619416  0.677986  0.223972
  0.608112  0.031918  0.964855
  0.643547  0.257860  0.687564
  0.341166  0.276356  0.316404
  0.078248  0.054697  0.380933
  0.281682  0.868577  0.766548
  0.267318  0.670441  0.466661
  0.720688  0.487185  0.177128
  0.740071  0.085208  0.786981
  0.252295  0.087428  0.242065
  0.237153  0.663219  0.697244
EA767
 1.0000000000000000
     4.415000    0.000000    0.000000
    -0.000385    4.415000    0.000000
     0.019653   -0.036528    4.185794
 H   O  
   8   4
Direct
  1.069349  0.580832  0.426222
  0.965803  0.395708  0.718312
  0.404855  0.451740 -0.083763
  0.438770  0.390477  0.272161
  0.601751 -0.049726  0.472311
  0.260471 -0.009318  0.544924
  1.049900 -0.084474  0.115320
  0.793317  0.023230 -0.107042
  0.911280  0.568832  0.588138
  0.399682  0.553336  0.122923
  0.461076  0.038448  0.626386
  0.903115  0.077233  0.086238
EA768
 1.0000000000000000
     4.415000    0.000000    0.000000
    -0.000385    4.415000    0.000000
     0.019653   -0.036528    4.185794
 H   O  
   8   4
Direct
  1.050465  0.529577  0.480474
  0.896917  0.421265  0.791340
  0.415667  0.399112 -0.046916
  0.418883  0.475259  0.309010
  0.480365 -0.088491  0.679808
  0.363911  0.058175  0.369738
  1.098050 -0.116466  0.060282
  0.797970  0.054686  0.001380
  0.878354  0.568404  0.620696
  0.405805  0.569895  0.100590
  0.437950  0.106144  0.582818
  0.985157  0.063976  0.122833
EA769
 1.0000000000000000
     4.422000   -0.000000   -0.000000
    -0.000232    4.422000   -0.000000
     0.021850   -0.041221    4.172739
 H   O  
   8   4
Direct
  0.866502  0.623795  0.423689
  0.582231  0.760286  0.266065
  0.572122  0.150137  0.871202
  0.718303  0.296717  0.574087
  0.431477  0.260765  0.243089
  0.146843  0.123902  0.401535
  0.242265  0.828988  0.845653
  0.248798  0.702541  0.505103
  0.745276  0.616028  0.229942
  0.745619  0.135237  0.727713
  0.265986  0.120510  0.204939
  0.242570  0.638920  0.727223
EA770
 1.0000000000000000
     4.422000   -0.000000   -0.000000
    -0.000232    4.422000   -0.000000
     0.021850   -0.041221    4.172739
 H   O  
   8   4
Direct
  0.886259  0.626301  0.395834
  0.599089  0.758839  0.240271
  0.630288  0.068187  0.907984
  0.755422  0.232708  0.610931
  0.360732  0.268765  0.269364
  0.075508  0.104926  0.394024
  0.236289  0.642201  0.950915
  0.249833  0.768532  0.613157
  0.712760  0.572218  0.264882
  0.797333  0.066927  0.755440
  0.259031  0.073892  0.268470
  0.226934  0.579548  0.727569
EA771
 1.0000000000000000
     4.422528    0.000000    0.000000
    -0.000169    4.422528    0.000000
     0.021266   -0.040318    4.171693
 H   O  
   8   4
Direct
  0.443543  0.276006  0.880674
  0.667942  0.543430  0.865491
  0.438543  0.778871  0.369142
  0.667192  1.043100  0.364388
  0.128107  0.282521  0.266721
 -0.017589  0.539772  0.467697
  0.127319  0.782127  0.756777
 -0.012733  1.037186  0.965623
  0.491662  0.457201  0.760474
  0.491932  0.961319  0.253660
 -0.009801  0.452881  0.252555
 -0.010743  0.952882  0.749200
EA772
 1.0000000000000000
     4.421229   -0.000000    0.000000
    -0.000386    4.421229    0.000000
     0.021240   -0.039650    4.174291
 H   O  
   8   4
Direct
  0.193651  0.836463  0.988776
 -0.109776  0.974994  0.895327
  0.049232  0.627049  0.720153
  0.072595  0.471757  0.393462
  0.437344  0.763384  0.516916
  0.459062  1.109693  0.475787
  0.644368  0.478930  0.271633
  0.611748  0.528289 -0.093010
  0.029267  0.959475  1.073680
 -0.005451  0.440806  0.608712
  0.531668  0.943862  0.606895
  0.498153  0.473777  0.098308
EA773
 1.0000000000000000
     4.423055    0.000000    0.000000
    -0.000171    4.423055   -0.000000
     0.021342   -0.040445    4.170639
 H   O  
   8   4
Direct
  0.460587  0.153690  0.892518
  0.460996  0.478650  0.770610
  0.461463  0.652923  0.389466
  0.461297  0.978732  0.269017
  0.845974  0.434692  0.180081
  1.171960  0.349499  0.093629
 -0.103831  0.983951  0.560202
  0.170947  0.772344  0.600998
  0.381989  0.278551  0.721060
  0.381728  0.778750  0.219213
  0.980399  0.405557 -0.003175
 -0.013118  0.798351  0.477431
EA774
 1.0000000000000000
     4.423538    0.000000    0.000000
    -0.000410    4.423538   -0.000000
     0.021610   -0.040239    4.169674
 H   O  
   8   4
Direct
  0.199826  0.684408 -0.126401
  0.142224  0.456220  0.140708
  0.198836  0.183754  0.375236
  0.141977 -0.043157  0.643260
  0.494733  0.934514  0.946973
  0.719422  0.841917  0.677885
  0.556786  0.254619  0.434170
  0.604946  0.522792  0.203697
  0.101304  0.664454  0.081743
  0.101626  0.164970  0.584047
  0.709106  0.916830  0.897708
  0.691264  0.423154  0.388814
EA775
 1.0000000000000000
     4.421769   -0.000000    0.000000
    -0.000238    4.421769   -0.000000
     0.021785   -0.041091    4.173202
 H   O  
   8   4
Direct
  0.285216 -0.007311  0.528812
  0.475190  0.281338  0.586661
  0.465693  0.550192 -0.079583
  0.296533  0.731087  0.184503
  0.976814  0.602583  0.657239
  0.869034  0.930194  0.688809
  0.170573  0.343315  0.385104
 -0.129199  0.399947  0.206960
  0.448414  0.074554  0.658717
  0.447252  0.573294  0.151514
  0.986681  0.777775  0.799453
 -0.022751  0.250271  0.333780
EA776
 1.0000000000000000
     4.422258   -0.000000   -0.000000
    -0.000252    4.422258    0.000000
     0.021830   -0.041105    4.172482
 H   O  
   8   4
Direct
  0.361319  0.328139  0.838766
  0.583254  0.565728  0.975815
  0.468222  0.813807  0.537109
  0.475232  1.072938  0.291315
 -0.028473  0.811280  1.034153
 -0.027050  1.072769  0.791177
 -0.137762  0.329241  0.341346
  0.090189  0.563720  0.473021
  0.573940  0.383516  0.843538
  0.574402  0.884645  0.347452
  0.074722  0.885003  0.843968
  0.075867  0.380991  0.342142
EA777
 1.0000000000000000
     4.422911    0.000000    0.000000
    -0.000372    4.422911    0.000000
     0.021708   -0.040606    4.170923
 H   O  
   8   4
Direct
  0.185221  0.159640 -0.126847
  0.318931  0.257875  0.195394
  0.788367  0.494081  0.973601
  0.903520  0.772357  0.787852
  0.959966  0.008644  0.335706
  0.732865  0.265164  0.412346
  0.281926  0.561895  0.514384
  0.385842  0.895705  0.527634
  0.366456  0.247071 -0.032492
  0.917194  0.671433  0.993333
  0.916908  0.170054  0.488979
  0.378164  0.718796  0.387459
EA778
 1.0000000000000000
     4.419944   -0.000000    0.000000
    -0.000411    4.419944   -0.000000
     0.020746   -0.038623    4.177551
 H   O  
   8   4
Direct
  0.133222  0.954718  0.182334
  0.364197  0.695426  0.139654
  0.799530  0.420289  0.131084
  0.612313  0.137744  0.218564
  0.367855  0.297640  0.759743
  0.112994  0.337236  0.511501
  0.640990  0.987443  0.687110
  0.850011  0.709581  0.642625
  0.319095  0.872981  0.270631
  0.596232  0.335987  0.119829
  0.202247  0.430576  0.700841
  0.804602  0.876666  0.788273
EA779
 1.0000000000000000
     4.421541   -0.000000    0.000000
    -0.000241    4.421541   -0.000000
     0.021713   -0.040946    4.173659
 H   O  
   8   4
Direct
  1.015849  0.633332  0.428687
  0.915366  0.491093  0.106519
  0.316465  0.579356  0.879215
  0.604679  0.552869  0.669732
  0.318320  0.081891  0.382265
  0.609037  0.045839  0.178312
  1.013895  0.138122  0.930628
  0.913290 -0.012680  0.613017
  0.978375  0.440382  0.322576
  0.482271  0.443677  0.824425
  0.481537 -0.058482  0.332243
  0.979280 -0.057656  0.829510
EA780
 1.0000000000000000
     4.424000    0.000000    0.000000
    -0.000463    4.424000   -0.000000
     0.021538   -0.039951    4.168753
 H   O  
   8   4
Direct
  0.707088  0.584138  0.885761
  0.546349  0.281191  0.837449
  0.203540  0.583189  0.397360
  0.040599  0.280506  0.356573
  0.707003  1.084360  0.384704
  0.547088  0.780793  0.334939
  0.111060  0.918439  1.049889
  0.144203  0.949971  0.686647
  0.507117  0.496934  0.855552
  0.002865  0.496602  0.372602
  0.507380  0.996625  0.352627
  0.007209  0.996655  0.863254
EA781
 1.0000000000000000
     4.422067    0.000000    0.000000
    -0.000371    4.422067    0.000000
     0.021500   -0.040225    4.172615
 H   O  
   8   4
Direct
  0.318721  0.818099  1.033970
  0.425013  0.818916  0.680570
  0.321627  0.310344  0.539066
  0.426200  0.322255  0.185456
  0.810234  1.054400  0.525198
  0.824462  0.930488  0.865956
  0.805442  0.386052  0.072546
  0.977510  0.591263  0.312187
  0.370081  0.951936  0.858393
  0.371468  0.449700  0.367860
  0.953120  0.999477  0.691442
  0.980188  0.518861  0.091285
EA782
 1.0000000000000000
     4.421835   -0.000000    0.000000
    -0.000188    4.421835    0.000000
     0.021087   -0.039902    4.172935
 H   O  
   8   4
Direct
  0.602961  0.322891  0.458513
  0.945869  0.389388  0.467622
  0.103399  0.978760  0.453936
  0.423426  0.888697  0.552542
  0.606048  0.978535 -0.048752
  0.925093  0.887972  0.053758
  0.130734  0.476266 -0.062588
  0.447911  0.393847  0.052495
  0.757420  0.427487  0.582525
  0.221491  0.920783  0.639787
  0.719444  0.908361  0.135558
  0.238807  0.405853  0.124653
EA783
 1.0000000000000000
     4.419130    0.000000    0.000000
    -0.000342    4.419130   -0.000000
     0.020785   -0.038878    4.179221
 H   O  
   8   4
Direct
  0.616342  0.683533  0.480526
  0.358733  0.891159  0.602437
  0.024671  0.327703  0.357942
  0.029996  0.277405  0.722810
  0.535690  0.332535 -0.137725
  0.514180  0.292620  0.228823
  0.131936  0.891548  0.142964
 -0.126708  0.753694 -0.059027
  0.418733  0.762782  0.422157
  0.147578  0.361471  0.547509
  0.631466  0.391989  0.062553
  0.063600  0.863663 -0.076210
EA784
 1.0000000000000000
     4.423122   -0.000000    0.000000
    -0.000452    4.423122    0.000000
     0.021367   -0.039654    4.170655
 H   O  
   8   4
Direct
  0.698359  1.001897  0.564471
  0.481610  0.772391  0.412893
  0.697396  0.502695  0.065866
  0.481356  0.272261 -0.084406
  0.138861  0.118760 -0.017847
  0.106080 -0.144014  0.221690
  0.125968  0.546629  0.686718
 -0.137843  0.346457  0.569201
  0.531364  0.867409  0.617237
  0.531663  0.367225  0.119633
  0.059635  0.069027  0.193431
  0.028923  0.471016  0.492824
EA785
 1.0000000000000000
     4.424000    0.000000    0.000000
    -0.000463    4.424000   -0.000000
     0.021538   -0.039980    4.168753
 H   O  
   8   4
Direct
  0.958867  0.276578  0.328737
  0.905651  0.617959  0.343684
  0.881997  0.937919  1.000816
  0.993043  0.958032  0.653914
  0.463351  0.776360  0.316235
  0.410274  1.118279  0.321646
  0.462884  0.276795  0.817204
  0.410315  0.618443  0.824314
  1.059176  0.465738  0.382961
  1.064123  0.969092  0.873907
  0.564536  0.967116  0.363237
  0.564046  0.467002  0.866092
EA786
 1.0000000000000000
     4.423831    0.000000    0.000000
    -0.000437    4.423831   -0.000000
     0.021577   -0.040084    4.169257
 H   O  
   8   4
Direct
  0.477112  0.380570  0.242380
  0.321312  0.653909  0.095109
  0.977526  0.381572  0.741442
  0.821060  0.654464  0.594026
  0.514395  0.098700  0.680689
  0.210589 -0.062337  0.659373
  1.011908  0.103189  0.180343
  0.714071 -0.068649  0.156388
  0.364819  0.561944  0.300552
  0.864837  0.562771  0.799526
  0.329847  0.064380  0.802910
  0.827748  0.062244  0.300897
EA787
 1.0000000000000000
     4.421324    0.000000    0.000000
    -0.000360    4.421324   -0.000000
     0.021345   -0.039969    4.174102
 H   O  
   8   4
Direct
  0.496838  0.100517  0.040266
  0.268860 -0.103946  0.210339
  0.550303  0.531191  0.701112
  0.267836  0.452483  0.499713
  1.123167 -0.001515  0.552724
  0.811617  0.120681  0.448692
  1.125950  0.501761  0.057649
  0.810034  0.613771 -0.044524
  0.285402  0.091010  0.105417
  0.408286  0.615716  0.548619
  0.910090 -0.054586  0.540805
  0.914369  0.442394  0.048545
EA788
 1.0000000000000000
     4.422599    0.000000    0.000000
    -0.000185    4.422599   -0.000000
     0.021538   -0.040773    4.171546
 H   O  
   8   4
Direct
 -0.147396  0.168812  0.784032
  0.097107 -0.068945  0.731037
  0.427119  0.141944  0.185774
  0.479514 -0.068094  0.474648
  0.414329  0.670132  0.887733
  0.490140  0.367392  0.718491
 -0.044756  0.444162  0.176551
  0.000752  0.633581  0.485662
  0.069915  0.147773  0.758500
  0.585017  0.054370  0.317160
  0.496714  0.585216  0.689886
  0.108538  0.547989  0.302330
EA789
 1.0000000000000000
     4.414794    0.000000    0.000000
    -0.000385    4.414794    0.000000
     0.019581   -0.036375    4.187203
 H   O  
   8   4
Direct
  0.326504  0.862087  0.386510
  0.623603  0.973296  0.231001
  1.058248  0.797538  1.041353
  0.767821  0.903641  0.878537
  0.940916  0.364132  0.584116
  0.964368  0.382399  0.216101
  0.440938  0.511193  0.695279
  0.392781  0.295765  0.979525
  0.527358  0.939416  0.437271
  0.982032  0.952017  0.898091
  1.078141  0.418475  0.411187
  0.306001  0.470908  0.874478
EA790
 1.0000000000000000
     4.422396    0.000000    0.000000
    -0.000278    4.422396   -0.000000
     0.021788   -0.040968    4.171949
 H   O  
   8   4
Direct
  0.746281  0.427224 -0.017808
  0.894574  0.600101  0.259440
  0.165002  0.562191  0.690266
  0.477458  0.466314  0.568448
  0.747053  0.927638  0.483935
  0.893919  1.099940  0.761971
  0.246417  0.926680 -0.001819
  0.386644  1.099479  0.279730
  0.816245  0.401564  0.201209
  0.315641  0.403672  0.711646
  0.815212  0.901797  0.703427
  0.309572  0.901251  0.219194
EA791
 1.0000000000000000
     4.337569   -0.000000   -0.000000
     0.000000    4.337569   -0.000000
     0.000000    0.000000    4.337569
 H   O  
   8   4
Direct
  0.031579  0.779260  0.851867
  0.282452  0.534365  0.882275
  0.938496  0.191324  0.781933
  0.766808  0.011639  0.532792
  0.218067  0.438496  0.308676
  0.467208  0.266808  0.488361
  0.691324  0.718067  0.061504
  0.511639  0.967208  0.233192
  0.060969  0.561375  0.890858
  0.919696  0.172037  0.560275
  0.439725  0.419696  0.327963
  0.672037  0.939725  0.080304
EA792
 1.0000000000000000
     5.632442   -0.000000   -0.000000
     0.000000    4.981636   -0.000000
     0.000000    0.000000    2.908509
 H   O  
   8   4
Direct
  0.870357  0.592939  0.397720
  0.843445  0.888239  0.267768
  0.129643  0.407061  0.602280
  0.156555  0.111761  0.732232
  0.370357  0.907061  0.102280
  0.343445  0.611761  0.232232
  0.629643  0.092939  0.897720
  0.656555  0.388239  0.767768
  0.936398  0.768822  0.459213
  0.063602  0.231178  0.540787
  0.436398  0.731178  0.040787
  0.563602  0.268822  0.959213
EA793
 1.0000000000000000
     6.885461   -0.000000   -0.000000
     0.000000    3.442731   -0.000000
     0.000000    0.000000    3.442731
 H   O  
   8   4
Direct
  0.316326  0.667134  0.583351
  0.198610  0.296466  0.522082
  0.066326  0.083351 -0.167134
 -0.051390  0.022082  0.203534
  0.816326  0.332866  0.416649
  0.698610  0.703534  0.477918
  0.566326 -0.083351  0.167134
  0.448610 -0.022082 -0.203534
  0.235064  0.536401  0.394567
 -0.014936 -0.105433 -0.036401
  0.735064  0.463599  0.605433
  0.485064  0.105433  0.036401
EA794
 1.0000000000000000
     4.207825    0.000000    0.000000
     0.000000    4.207825    0.000000
     0.000000    0.000000    4.609181
 H   O  
   8   4
Direct
  0.009213 -0.145051 -0.054652
  0.102025  0.203457 -0.019081
  0.509213  0.292563  0.195348
  0.602025  0.641071  0.230919
  0.446827  0.354949  0.695348
  0.539639  0.703457  0.730919
  0.946827  0.792563  0.445348
  1.039639  1.141071  0.480919
 -0.017659  0.035173  0.073733
  0.482341  0.472787  0.323733
  0.419955  0.535173  0.823733
  0.919955  0.972787  0.573733
EA795
 1.0000000000000000
     4.125841    0.000000    0.000000
     0.000000    3.829716    0.000000
     0.000000    0.000000    5.164878
 H   O  
   8   4
Direct
  0.180864 -0.020056 -0.047127
 -0.133795  0.098028  0.081300
  0.680864 -0.020056  0.452873
  0.366205  0.098028  0.581300
  1.180864  0.479944  0.452873
  0.866205  0.598028  0.581300
  0.680864  0.479944 -0.047127
  0.366205  0.598028  0.081300
 -0.047069 -0.077972 -0.034173
  0.452931 -0.077972  0.465827
  0.952931  0.422028  0.465827
  0.452931  0.422028 -0.034173
EA796
 1.0000000000000000
     6.416820    0.000000    0.000000
     0.000000    3.673278   -0.000000
     0.000000    0.000000    3.462306
 H   O  
   8   4
Direct
  0.865956 -0.025477  0.432949
  0.694179  0.081721  0.149980
  0.777551  0.474523  0.932949
  0.605774  0.581721  0.649980
  0.277551 -0.025477  0.932949
  0.105774  0.081721  0.649980
  0.365956  0.474523  0.432949
  0.194179  0.581721  0.149980
  0.822472 -0.056244  0.167071
  0.734068  0.443756  0.667071
  0.234068 -0.056244  0.667071
  0.322472  0.443756  0.167071
EA797
 1.0000000000000000
     4.423000   -0.000000    0.000000
    -0.000386    4.423000    0.000000
     0.021694   -0.040619    4.170746
 H   O  
   8   4
Direct
  0.176668  0.177394 -0.132350
  0.338322  0.314013  0.161452
  0.665137  0.571646  1.102563
  0.824594  0.689810  0.796502
  0.780047  0.047818  0.362388
  0.708075  0.336934  0.559727
  0.187877  0.519595  0.528822
  0.350468  0.807022  0.653817
  0.355419  0.155297 -0.000194
  0.859054  0.643269  1.021032
  0.855220  0.174433  0.536565
  0.369589  0.640867  0.500374
EA798
 1.0000000000000000
     4.423000   -0.000000    0.000000
    -0.000386    4.423000    0.000000
     0.021694   -0.040619    4.170746
 H   O  
   8   4
Direct
  0.193267  0.147707 -0.153350
  0.342515  0.297624  0.140747
  0.755640  0.538250  0.849204
  0.770854  0.873297  0.960711
  0.873211 -0.025761  0.375400
  0.671601  0.255184  0.433938
  0.166304  0.484032  0.537800
  0.322193  0.771335  0.672536
  0.362110  0.127579 -0.006997
  0.815991  0.668090  1.027960
  0.844148  0.146296  0.519361
  0.325643  0.629637  0.492580
EA799
 1.0000000000000000
     4.420000    0.000000   -0.000000
     0.000231    4.420000    0.000000
     0.021069   -0.040899    4.176747
 H   O  
   8   4
Direct
  0.309542  0.438804  1.134666
 -0.029434  0.438104  1.063515
  0.827902  0.932869  0.928615
  0.481732  0.934161  0.924293
  0.867254  0.435420  0.580508
  0.529765  0.435244  0.664222
  0.333518  0.928809  0.399531
 -0.012625  0.930481  0.408483
  0.166995  0.424237  0.958221
  0.657033  0.935590  0.782467
  0.667971  0.434148  0.482144
  0.157819  0.945241  0.261127
EA800
 1.0000000000000000
     4.420000    0.000000   -0.000000
     0.000231    4.420000    0.000000
     0.021069   -0.040899    4.176747
 H   O  
   8   4
Direct
  0.331599  0.434987  0.965376
 -0.010181  0.433485  1.023602
  0.834423  0.934466  1.158904
  0.488230  0.935036  1.165513
  0.802886  0.435431  0.502954
  0.465258  0.435492  0.423489
  0.324979  0.951118  0.686536
 -0.021158  0.952451  0.680882
  0.139651  0.448884  0.853103
  0.659470  0.933852  1.018193
  0.664159  0.437328  0.322607
  0.154552  0.938108  0.540278
EA801
 1.0000000000000000
     4.424000   -0.000000   -0.000000
    -0.000386    4.424000    0.000000
     0.021616   -0.040245    4.169750
 H   O  
   8   4
Direct
  0.116661  0.732163 -0.120511
  0.125105  0.493250  0.147106
  0.016376 -0.009244  0.380231
  0.020036  0.222471  0.652756
  0.371773  1.190296  1.186528
  0.516773  1.038044  0.888903
  0.532147  0.516701  0.405372
  0.536957  0.862452  0.402562
  0.002045  0.655653  0.060879
  0.040653  0.205892  0.420728
  0.544717  1.202304  1.042733
  0.503858  0.692163  0.544389
EA802
 1.0000000000000000
     4.424000   -0.000000   -0.000000
    -0.000386    4.424000    0.000000
     0.021616   -0.040245    4.169750
 H   O  
   8   4
Direct
  0.175778  0.771881 -0.132195
  0.077650  0.497449  0.069703
  0.027184  0.249214  0.367564
  0.015782 -0.039993  0.562547
  0.391803  1.146390  1.230504
  0.496588  1.131684  0.877164
  0.519713  0.565875  0.341195
  0.534336  0.879940  0.497154
  0.024451  0.705780  0.021715
  0.031919  0.178435  0.587188
  0.544788  1.222455  1.084110
  0.515240  0.666881  0.549213
EA803
 1.0000000000000000
     4.424000   -0.000000   -0.000000
    -0.000386    4.424000    0.000000
     0.021616   -0.040245    4.169750
 H   O  
   8   4
Direct
  0.170281  0.615251 -0.079803
 -0.012594  0.609255  0.236733
  0.015915 -0.070538  0.505934
  0.024764  0.230881  0.685316
  0.352184  1.192628  1.109815
  0.535927  0.941990  0.938202
  0.538101  0.502173  0.456446
  0.535554  0.815156  0.303616
 -0.008034  0.699629  0.024659
  0.026028  0.145656  0.469222
  0.545524  1.152710  1.006363
  0.514257  0.715332  0.509359
EA804
 1.0000000000000000
     4.418716    0.000000    0.000000
    -0.000278    4.418716    0.000000
     0.020538   -0.038506    4.179260
 H   O  
   8   4
Direct
  0.696758  0.677252  0.539593
  0.896702  0.716717  0.238274
  0.717999  0.315504  0.773134
  0.884629  0.082074  0.981231
  0.357770  0.708415  0.838093
  0.301670  0.451690  1.080408
  0.425906 -0.022073  0.393105
  0.274134  0.249259  0.566259
  0.729325  0.599039  0.324010
  0.740690  0.099229  0.807525
  0.204781  0.565909  0.911163
  0.267205  0.029641  0.546121
EA805
 1.0000000000000000
     4.419023    0.000000    0.000000
    -0.000297    4.419023   -0.000000
     0.020837   -0.039069    4.178862
 H   O  
   8   4
Direct
  0.595278  0.540368  0.735160
  0.725084  0.354025  1.013416
  0.270239  0.367332  0.220470
  0.194731  0.603292  0.486155
  0.270800  0.868852  0.723247
  0.193590  1.104263  0.988888
  0.590053  1.039034  0.242216
  0.728639  0.852008  0.515261
  0.573668  0.505914  0.963588
  0.103366  0.452701  0.344777
  0.103073  0.954279  0.846183
  0.575694  1.004001  0.471104
EA806
 1.0000000000000000
     4.423241   -0.000000    0.000000
    -0.000210    4.423241   -0.000000
     0.021568   -0.040647    4.171264
 H   O  
   8   4
Direct
 -0.104748  0.505277  0.489100
  0.185227  0.645015  0.618755
  0.436765  0.192883  0.559081
  0.624395  0.051415  0.287470
  0.636369  0.714464 -0.015110
  0.352231  0.534888  0.083660
  0.042492 -0.071087 -0.010733
  0.164435  0.225557  0.138401
  0.111890  0.510113  0.450587
  0.639119  0.192500  0.467081
  0.563892  0.510776  0.024136
  0.137188  0.120008 -0.065455
EA807
 1.0000000000000000
     4.484236    0.000000    0.000000
    -0.000268    4.484236    0.000000
     0.014476   -0.027104    4.057937
 H   O  
   8   4
Direct
  0.831062  0.180766  0.733125
  0.612187  0.432001  0.832315
  0.321105  0.648312  0.742819
  0.106519  0.902609  0.835294
  0.453296 -0.001549  0.116363
  0.181117  0.079351  0.336019
  0.835089  0.447621  0.283412
  0.847353  0.788288  0.332714
  0.627641  0.249998  0.702061
  0.121154  0.722224  0.702763
  0.324165  0.163700  0.181517
  0.803562  0.634963  0.169767
EA808
 1.0000000000000000
     4.418237   -0.000000    0.000000
    -0.000386    4.418237    0.000000
     0.020568   -0.038401    4.179293
 H   O  
   8   4
Direct
  0.191600  0.737641  0.439156
  0.540692  0.724976  0.457713
  0.903943  0.715859  1.111327
  0.838357  0.684319  0.750663
  0.413477  0.283537  0.909799
  0.356100  0.012506  1.132925
  0.903916  0.320242  0.453385
  0.735221  0.044174  0.579245
  0.363452  0.602453  0.409146
  0.844220  0.569530  0.948154
  0.331842  0.079278  0.913622
  0.895069  0.101307  0.430443
EA809
 1.0000000000000000
     4.421004    0.000000    0.000000
    -0.000385    4.421004    0.000000
     0.021347   -0.039997    4.173750
 H   O  
   8   4
Direct
  0.327709  0.751569  0.390493
  0.434903  0.989418  0.630313
  0.861374  0.299417  0.309919
  0.835965  0.410375  0.660790
  0.945192  0.653793  0.074594
  0.800651  0.969639  0.033344
  0.382728  0.261539  0.219806
  0.411647  0.363754 -0.131928
  0.504583  0.870062  0.447747
  0.951412  0.276357  0.520387
  0.993377  0.868197  0.064629
  0.517729  0.363848  0.071651
EA810
 1.0000000000000000
     4.422638    0.000000   -0.000000
    -0.000182    4.422638    0.000000
     0.021475   -0.040657    4.172108
 H   O  
   8   4
Direct
  1.058643 -0.028512  0.433998
  0.796377  0.087899  0.648803
  0.496064  0.373006  0.619119
  0.343832  0.650050  0.464763
  0.499349 -0.130472  0.123513
  0.341062  0.143259 -0.031311
  1.061982  0.473965 -0.064891
  0.786449  0.569984  0.142286
  1.007138  0.124757  0.594111
  0.510925  0.591576  0.601402
  0.512734  0.087718  0.100343
  0.997810  0.616737  0.100798
EA811
 1.0000000000000000
     4.421954    0.000000    0.000000
    -0.000275    4.421954    0.000000
     0.021444   -0.040365    4.172796
 H   O  
   8   4
Direct
  0.657339  0.142924  0.656815
  0.358800 -0.030487  0.705876
  0.311301  0.655742  0.123967
  0.661343  0.643405  0.122524
  0.959447  0.668276  0.565061
  1.038380  0.419263  0.808314
  0.855818 -0.042535  0.198429
  1.152142  0.135285  0.144908
  0.475203  0.139562  0.787964
  0.484338  0.594792  0.251656
  0.964845  0.625964  0.793120
  0.975246  0.124553  0.283171
EA812
 1.0000000000000000
     4.415866    0.000000    0.000000
    -0.000369    4.415866    0.000000
     0.019899   -0.037037    4.184272
 H   O  
   8   4
Direct
  0.280002 -0.006076  0.199916
  0.507039  0.175521  0.003449
  0.839119  0.734155 -0.016146
  0.969415  0.463352  0.170102
  0.404699  0.693706  0.467603
  0.368632  0.487340  0.761401
  0.840964  0.149952  0.776151
  1.037964  0.133793  0.470407
  0.471820  0.100454  0.218504
  1.011864  0.671739  0.110856
  0.378833  0.698857  0.698899
  1.038083  0.084983  0.696757
EA813
 1.0000000000000000
     4.394941    0.000000    0.000000
    -0.000265    4.394941   -0.000000
     0.014915   -0.027946    4.224301
 H   O  
   8   4
Direct
  0.338342  0.864138  0.197178
  0.190348  1.096922 -0.027233
  0.875920 -0.034830  0.648924
  0.570567  0.137626  0.657004
  0.897975  0.529094  0.007726
  0.571052  0.546342  0.142640
  0.202801  0.569271  0.834605
  0.325076  0.441219  0.517406
  0.142408  0.931899  0.117037
  0.716908  0.044403  0.512696
  0.705966  0.419227  0.015109
  0.150419  0.542323  0.612813
EA814
 1.0000000000000000
     4.422147    0.000000    0.000000
    -0.000221    4.422147   -0.000000
     0.021686   -0.040916    4.173450
 H   O  
   8   4
Direct
  0.888675  0.518513  0.470965
  0.703020  0.612511  0.772115
  0.889788  0.016782 -0.030959
  0.702613  0.110681  0.269207
  0.486068  0.384916  0.426246
  0.237441  0.161263  0.533286
  0.343422  0.669983  0.818743
  0.397250  0.880749  1.110152
  0.906921  0.562965  0.699041
  0.907086  0.062458  0.196957
  0.268217  0.355732  0.431096
  0.271587  0.854977  0.921746
EA815
 1.0000000000000000
     4.423524    0.000000    0.000000
    -0.000349    4.423524    0.000000
     0.021654   -0.040443    4.170462
 H   O  
   8   4
Direct
  0.564452  0.881541  0.553588
  0.823879  0.652703  0.600988
  0.094898  0.053130  0.561540
  0.119425  0.395810  0.500666
  0.613632  0.336712 -0.066511
  0.714912  0.087141  0.157938
  0.269258  0.887840  0.931147
 -0.052961  0.764787  0.958831
  0.626336  0.675841  0.502035
  0.008721  0.246794  0.624878
  0.534378  0.172158  0.061413
  0.154534  0.719778  1.018052
EA816
 1.0000000000000000
     4.502766    0.000000    0.000000
     0.000137    4.502766    0.000000
     0.011842   -0.022988    4.024901
 H   O  
   8   4
Direct
  0.043416  0.266807  0.648980
  0.156852  0.524671  0.869221
  0.541879  0.735687  0.653349
  0.647466  0.994943  0.872692
  0.036769  0.809904  0.189546
  0.168183  0.628144  0.473600
  0.534557  0.306283  0.192076
  0.668253  0.130789  0.479277
  0.091956  0.319012  0.877227
  0.580767  0.790240  0.882764
  0.127504  0.831645  0.407609
  0.625074  0.332754  0.409639
EA817
 1.0000000000000000
     4.423000    0.000000    0.000000
    -0.000221    4.423000   -0.000000
     0.021594   -0.040730    4.171456
 H   O  
   8   4
Direct
  0.068714  0.688634  0.457222
 -0.030852  1.003329  0.584392
  0.703539  0.292531  0.344562
  0.381166  0.426379  0.368417
  0.564052  0.701982  0.898743
  0.529039  1.033327  0.786852
  0.056741  0.336273  0.771138
 -0.015594  0.523348  1.075331
  0.125672  0.901272  0.459285
  0.573063  0.416152  0.481000
  0.567808  0.911019  0.975015
  0.147179  0.416077  0.966134
EA818
 1.0000000000000000
     4.422574    0.000000    0.000000
    -0.000320    4.422574    0.000000
     0.021760   -0.040876    4.171596
 H   O  
   8   4
Direct
  0.133733  0.550701  0.063576
 -0.027560  0.334629  0.298803
  0.738922  0.941965 -0.020132
  0.478025  1.011940  0.217363
  0.596257  0.543679  0.420637
  0.630463  0.411572  0.761403
  0.200544  1.133038  0.642188
 -0.046087  0.888926  0.672831
  0.169998  0.385016  0.210447
  0.553458  0.858269  0.068675
  0.546816  0.368188  0.550497
  0.146506  0.930846  0.569511
EA819
 1.0000000000000000
     4.422095   -0.000000    0.000000
    -0.000259    4.422095    0.000000
     0.021300   -0.040181    4.172658
 H   O  
   8   4
Direct
  1.091991  0.182411  0.645363
  0.792365  0.314564  0.519500
  0.300313  0.173732  1.020476
  0.626102  0.190244  0.885923
  0.363129  0.833266  0.644258
  0.597758  0.703542  0.405580
  0.932251  0.765620  1.151376
  0.904561  0.572450  0.842561
  0.985419  0.231504  0.449450
  0.440057  0.306355  0.908564
  0.393987  0.786060  0.418275
  1.025765  0.730557  0.942533
EA820
 1.0000000000000000
     4.421226   -0.000000    0.000000
    -0.000351    4.421226    0.000000
     0.021427   -0.040206    4.173752
 H   O  
   8   4
Direct
  0.809136  0.306145  0.629379
  0.856729  0.163704  0.960950
  0.371051  0.183105  0.122727
  0.183965  0.188590  0.436261
  0.236906  0.568620  0.417559
  0.234931  0.776636  0.718953
  0.508967  0.573697  0.117359
  0.842770  0.672702  0.087768
  0.700272  0.217697  0.808641
  0.318822  0.061612  0.308341
  0.235559  0.565160  0.650829
  0.681354  0.640998  0.242977
EA821
 1.0000000000000000
     4.422856    0.000000    0.000000
    -0.000386    4.422856    0.000000
     0.021669   -0.040574    4.170963
 H   O  
   8   4
Direct
  0.855599  0.300770 -0.018422
  1.044156  0.557242  0.133032
  0.459436  0.175363  0.578877
  0.402368  0.496686  0.449532
  0.326713  0.784086  0.132744
  0.546365  0.891617 -0.133660
  0.819274  0.742055  0.697834
  1.051481  0.995171  0.627977
  1.016644  0.339380  0.134145
  0.524036  0.384706  0.601723
  0.515894  0.892318  0.097678
  1.020851  0.777701  0.611240
EA822
 1.0000000000000000
     4.405993   -0.000000    0.000000
    -0.000123    4.405993   -0.000000
     0.017210   -0.032651    4.204241
 H   O  
   8   4
Direct
  0.199852  0.463854  0.041571
  0.318215  0.269433  0.319614
  0.824783  1.056538  0.186381
  0.690910  0.732562  0.161531
  0.816773  0.565760  0.687891
  0.706003  0.233740  0.655605
  0.196733  0.968705  0.541696
  0.321507  0.775719  0.817379
  0.374506  0.347742  0.111991
  0.869975  0.852111  0.110911
  0.878809  0.365168  0.614046
  0.372008  0.850733  0.606839
EA823
 1.0000000000000000
     4.423262    0.000000    0.000000
    -0.000215    4.423262    0.000000
     0.021570   -0.040636    4.171222
 H   O  
   8   4
Direct
  0.665327  0.917702  0.808308
  0.607327  0.579163  0.761799
  0.694700  0.148062  0.180064
  0.535159  0.294905  0.472250
  0.133588  0.889382  0.215080
  0.434306  0.747070  0.327764
  0.445999  0.250535  0.890385
  0.144167  0.203149  0.714338
  0.750548  0.737742  0.707376
  0.645556  0.114969  0.404223
  0.216204  0.718142  0.330749
  0.228294  0.258970  0.921378
EA824
 1.0000000000000000
     5.406719   -0.000000   -0.000000
     0.000000    5.406719   -0.000000
     0.000000    0.000000    2.791718
 H   O  
   8   4
Direct
  0.515830 -0.043753  0.482258
  0.429983  0.077536  0.947152
 -0.043753  0.015830 -0.267742
  0.077536 -0.070017  0.197152
  0.515830  0.456247  0.232258
  0.429983  0.577536  0.697152
 -0.043753  0.515830 -0.017742
  0.077536  0.429983  0.447152
  0.554187 -0.033783  0.820590
 -0.033783  0.054187  0.070590
  0.554187  0.466217  0.570590
 -0.033783  0.554187  0.320590
EA825
 1.0000000000000000
     3.442731   -0.000000   -0.000000
     0.000000    3.442731   -0.000000
     0.000000    0.000000    6.885461
 H   O  
   8   4
Direct
  0.519622  0.327731  0.324860
  0.416017  0.587431  0.152815
  0.019622 -0.172269  0.574860
 -0.083983  0.087431  0.402815
  0.019622 -0.172269  0.074860
 -0.083983  0.087431 -0.097185
  0.519622  0.327731  0.824860
  0.416017  0.587431  0.652815
  0.564361  0.584837  0.272326
  0.064361  0.084837  0.522326
  0.064361  0.084837  0.022326
  0.564361  0.584837  0.772326
EA826
 1.0000000000000000
     2.866704   -0.000000   -0.000000
     0.000000    2.866704   -0.000000
     0.000000    0.000000    9.930550
 H   O  
   8   4
Direct
  0.250621  0.616028  0.501664
  0.727870  0.413971  0.536923
  0.383972  0.249379  0.751664
  0.586029 -0.227870  0.786923
 -0.249379  0.116028  0.001664
  0.227870 -0.086029  0.036923
 -0.116028  0.749379  0.251664
  0.086029  0.272130  0.286923
  0.521509  0.470001  0.461413
  0.529999 -0.021509  0.711413
  0.021509 -0.029999 -0.038587
  0.029999  0.478491  0.211413
EA827
 1.0000000000000000
     4.890745    0.000000    0.000000
     0.000000    4.890745   -0.000000
     0.000000    0.000000    3.411843
 H   O  
   8   4
Direct
  0.346745  0.041501  0.196072
  0.623515 -0.102291  0.179833
 -0.153255  0.541501  0.196072
  0.123515  0.397709  0.179833
 -0.153255  0.041501  0.646494
  0.123515 -0.102291  0.630256
  0.346745  0.541501  0.646494
  0.623515  0.397709  0.630256
  0.529740  0.060790  0.091146
  0.029740  0.560790  0.091146
  0.029740  0.060790  0.541568
  0.529740  0.560790  0.541568
EA828
 1.0000000000000000
     6.021821    0.000000    0.000000
     0.000000    5.246958    0.000000
     0.000000    0.000000    2.582877
 H   O  
   8   4
Direct
  0.373697  0.672710  0.405594
  0.593366  0.634081  0.689837
  0.373697  0.172710  0.438185
  0.593366  0.134081  0.722429
 -0.126303  0.405119  0.049217
  0.093366  0.366490  0.333460
  0.873697  0.905119  0.794562
  1.093366  0.866490  1.078805
  0.532937  0.681045  0.355682
  0.532937  0.181045  0.388273
  0.032937  0.413454 -0.000695
  1.032937  0.913454  0.744650
EA829
 1.0000000000000000
     3.746378    0.000000    0.000000
     0.000000    3.746378    0.000000
     0.000000    0.000000    5.814546
 H   O  
   8   4
Direct
 -0.148897 -0.116032  0.210060
  0.178765  0.015622  0.341011
  0.351103  0.383968  0.169872
  0.678765  0.515622  0.300822
 -0.148897 -0.116032  0.669872
  0.178765  0.015622  0.800822
  0.351103  0.383968  0.710060
  0.678765  0.515622  0.841011
 -0.029868  0.100410  0.259212
  0.470132  0.600410  0.219023
 -0.029868  0.100410  0.719023
  0.470132  0.600410  0.759212
EA830
 1.0000000000000000
     4.423000    0.000000    0.000000
    -0.000232    4.423000    0.000000
     0.021626   -0.040702    4.171745
 H   O  
   8   4
Direct
 -0.026059  0.618051  0.450925
 -0.135829  0.926664  0.584302
  0.566213  0.206822  0.410534
  0.267998  0.322650  0.264388
  0.423777  0.666968  0.810837
  0.426416  1.009705  0.763097
 -0.241722  0.367179  0.783632
 -0.096947  0.526204  1.075155
 -0.035723  0.832738  0.400582
  0.416629  0.368114  0.429210
  0.442709  0.856737  0.927840
 -0.064193  0.363517  0.920464
EA831
 1.0000000000000000
     4.423000    0.000000    0.000000
    -0.000232    4.423000    0.000000
     0.021626   -0.040702    4.171745
 H   O  
   8   4
Direct
  0.084189  0.813163  0.464932
 -0.239001  0.731403  0.577503
  0.575940  0.201892  0.396474
  0.281694  0.363718  0.297366
  0.429204  0.705321  0.784888
  0.425886  1.048496  0.836267
 -0.210697  0.347289  0.779012
 -0.065177  0.505487  1.070612
 -0.128852  0.849048  0.419422
  0.424792  0.346519  0.472712
  0.445428  0.859415  0.951170
 -0.050590  0.325178  0.936264
EA832
 1.0000000000000000
     4.406000   -0.000000   -0.000000
    -0.000154    4.406000    0.000000
     0.017243   -0.032650    4.203838
 H   O  
   8   4
Direct
  0.198833  0.532017 -0.042467
  0.269100  0.314266  0.233888
  0.883307  1.133644  0.318010
  0.705045  0.852164  0.201860
  0.777648  0.563122  0.853598
  0.668007  0.268943  0.687066
  0.221095  1.101347  0.719802
  0.398958  0.817985  0.826880
  0.333886  0.503867  0.137348
  0.879668  0.978388  0.152375
  0.819341  0.429135  0.673755
  0.366204  0.950199  0.645755
EA833
 1.0000000000000000
     4.406000   -0.000000   -0.000000
    -0.000154    4.406000    0.000000
     0.017243   -0.032650    4.203838
 H   O  
   8   4
Direct
  0.235264  0.416240  0.104331
  0.455760  0.375883  0.385604
  0.834380  1.097134  0.330676
  0.688059  0.812859  0.178030
  0.901981  0.639836  0.809565
  0.745942  0.348091  0.684888
  0.194196  1.134492  0.652986
  0.317242  0.848548  0.819353
  0.406106  0.511537  0.211594
  0.854814  0.955347  0.153442
  0.935347  0.461239  0.676595
  0.375711  1.011561  0.676604
EA834
 1.0000000000000000
     4.395000   -0.000000   -0.000000
    -0.000230    4.395000    0.000000
     0.014892   -0.027940    4.223881
 H   O  
   8   4
Direct
  0.340988  0.860150  0.187579
  0.214295  1.033171 -0.100373
  0.896741 -0.195594  0.694335
  0.644129  0.049829  0.707275
  0.797997  0.602871  0.031927
  0.479134  0.464623  0.031809
  0.229732  0.485876  0.680335
  0.326646  0.301048  0.384368
  0.178250  0.856523  0.031802
  0.715810 -0.124427  0.584885
  0.688677  0.418092  0.086224
  0.170580  0.314458  0.547625
EA835
 1.0000000000000000
     4.423000   -0.000000    0.000000
    -0.000386    4.423000    0.000000
     0.021694   -0.040619    4.170746
 H   O  
   8   4
Direct
  0.131957  0.257647 -0.091003
  0.412556  0.192808  0.113868
  0.926209  0.550976  0.988359
  0.647188  0.742711  0.902787
  0.810677  0.039285  0.369483
  0.707489  0.332788  0.541293
  0.179814  0.519236  0.547461
  0.359846  0.802244  0.651989
  0.297019  0.115139 -0.066546
  0.817452  0.733861  1.048765
  0.865317  0.179874  0.540248
  0.355489  0.640710  0.492269
EA836
 1.0000000000000000
     4.422050    0.000000    0.000000
    -0.000191    4.422050    0.000000
     0.021496   -0.040708    4.172645
 H   O  
   8   4
Direct
  0.252282  0.799675  0.812313
 -0.075245  0.688634  0.861790
  0.666510  0.183622  0.944427
  0.421763  0.374810  0.781259
  0.678631  0.768944  0.553863
  0.411249  0.765151  0.317379
  0.247720  0.306024  0.307248
 -0.077217  0.187555  0.359550
  0.044208  0.841978  0.753999
  0.638565  0.363342  0.816057
  0.627579  0.728454  0.331119
  0.037785  0.345124  0.253196
EA837
 1.0000000000000000
     4.405620   -0.000000    0.000000
    -0.000289    4.405620    0.000000
     0.017503   -0.032807    4.203610
 H   O  
   8   4
Direct
  0.699823  0.149634  0.802178
  1.049356  0.121410  0.781807
  0.942973  0.867815  0.335352
  0.892495  0.523906  0.382332
  0.262811  0.887453  0.962411
  0.361893  0.825358  0.615160
  0.227229  0.215922  0.351993
  0.409355  0.494768  0.238353
  0.884963  0.183077  0.923485
  0.809613  0.722167  0.437484
  0.423647  0.795814  0.834440
  0.429599  0.303824  0.350798
EA838
 1.0000000000000000
     4.400581    0.000000    0.000000
    -0.000260    4.400581   -0.000000
     0.016207   -0.030346    4.213382
 H   O  
   8   4
Direct
  0.497198  0.328076  0.219758
  0.537340  0.512984  0.525410
  0.552326  1.042348  0.886510
  0.417736  0.721681  0.933342
 -0.021433  0.303099  1.067119
  0.080824  0.462007  0.758981
 -0.021124  0.903716  0.348177
  0.026677  1.087447  0.653556
  0.506331  0.536063  0.298379
  0.398614  0.931508  1.004903
  0.139080  0.429089  0.978816
  0.013987  0.879706  0.574527
EA839
 1.0000000000000000
     4.419570    0.000000    0.000000
    -0.000318    4.419570   -0.000000
     0.020688   -0.038708    4.177742
 H   O  
   8   4
Direct
  0.411902  0.143721  0.094072
  0.754890  0.155715  0.045733
  0.193512  0.166910  0.775686
  0.006665  0.096345  0.472591
  0.543559  0.539633  0.439640
  0.435937  0.597173  0.787049
 -0.107202  0.669112  0.180563
  0.236052  0.673413  0.131544
  0.565319  0.184983 -0.067215
  0.189536  0.038235  0.585681
  0.580421  0.666026  0.627108
  0.081931  0.635639  0.293195
EA840
 1.0000000000000000
     4.415997   -0.000000    0.000000
    -0.000200    4.415997    0.000000
     0.019833   -0.037408    4.184920
 H   O  
   8   4
Direct
  0.134841  0.427379  0.325163
 -0.034440  0.631919  0.568366
  0.625940  0.641324  0.827079
  0.478313  0.433498  1.078728
  0.146306 -0.071165  0.832864
 -0.050594  0.113847  1.070759
  0.492539  1.153936  0.315418
  0.525176  0.861551  0.512211
 -0.062064  0.516361  0.371872
  0.447679  0.518134  0.867331
 -0.062025 -0.015912  0.882165
  0.530501  0.937684  0.294590
EA841
 1.0000000000000000
     4.423077    0.000000    0.000000
    -0.000244    4.423077   -0.000000
     0.021490   -0.040396    4.171363
 H   O  
   8   4
Direct
  0.904438  0.923781  0.710177
  0.893493  0.789505  0.371328
  0.904465  0.421121  0.209435
  0.896413  0.293313 -0.132602
  0.405881  0.921559  0.212019
  0.395887  0.795105 -0.130551
  0.404951  0.420861  0.709280
  0.395822  0.293037  0.367275
  0.843129  0.742827  0.592697
  0.845249  0.242139  0.087422
  0.345117  0.743395  0.089437
  0.344859  0.242081  0.587410
EA842
 1.0000000000000000
     4.423634    0.000000    0.000000
    -0.000301    4.423634    0.000000
     0.021566   -0.040386    4.170481
 H   O  
   8   4
Direct
  0.651934  0.809545  0.610885
  0.800213  1.012847  0.354938
  0.344926  0.304348  0.393758
  0.122625  0.513357  0.577433
  0.337206  0.805854 -0.107056
  0.121498  1.015149  0.084886
  0.651552  0.309360  0.108425
  0.802186  0.512219 -0.146416
  0.826703  0.937812  0.571275
  0.329360  0.438940  0.578744
  0.326828  0.936903  0.081185
  0.827855  0.435682  0.069416
EA843
 1.0000000000000000
     4.424000   -0.000000    0.000000
    -0.000386    4.424000    0.000000
     0.021616   -0.040245    4.169750
 H   O  
   8   4
Direct
  0.001004  0.654790  0.473466
  0.150811  0.915907  0.287973
  0.403403  0.898696  0.737634
  0.690489  0.739328  0.860207
  0.501803  0.318075  0.723539
  0.342107  0.367610  0.399912
  1.036252  0.530442  0.089158
  0.870231  0.321474  0.321264
 -0.030838  0.862339  0.407013
  0.533876  0.882293  0.923906
  0.304679  0.354477  0.629450
  0.892969  0.363578  0.093984
EA844
 1.0000000000000000
     4.422611   -0.000000    0.000000
    -0.000172    4.422611    0.000000
     0.021426   -0.040472    4.172179
 H   O  
   8   4
Direct
  0.240867  0.534799  0.947083
  0.252531  0.782746  0.694040
  0.735951  0.036716  0.950672
  0.754490  0.282449  0.696090
  0.205351  0.257480  0.510512
  0.393701  0.310049  0.203305
  0.826454  0.661544  0.256599
  0.531867  0.816697  0.371153
  0.364509  0.608646  0.770671
  0.862894  0.107160  0.775268
  0.314611  0.151457  0.340660
  0.725546  0.742085  0.446564
EA845
 1.0000000000000000
     4.423000    0.000000    0.000000
    -0.000386    4.423000   -0.000000
     0.021694   -0.040619    4.170746
 H   O  
   8   4
Direct
  0.743126  0.702198  0.808299
  0.435845  0.828989  0.697152
  0.082797  0.817849  0.350310
  0.087505  0.825063 -0.020046
  0.721529  0.195240  0.111824
  0.454141  0.402315  0.202737
  0.281968  0.339846  0.595824
 -0.034557  0.192106  0.614712
  0.648732  0.817678  0.638521
  0.158272  0.932891  0.169580
  0.671830  0.402565  0.170004
  0.070223  0.384083  0.641610
EA846
 1.0000000000000000
     4.421442   -0.000000    0.000000
    -0.000356    4.421442    0.000000
     0.021370   -0.040025    4.173867
 H   O  
   8   4
Direct
  1.085453  0.688769 -0.036790
  0.858934  0.850595  0.190936
  1.089980  0.187358  0.463320
  0.854953  0.341351  0.687507
  0.484581  0.685727  0.363833
  0.424279  0.458681  0.635736
  0.492246  0.182958  0.869229
  0.424035 -0.044213  1.138393
  0.909844  0.653595  0.099449
  0.911864  0.146758  0.594162
  0.339620  0.536420  0.438485
  0.345157  0.033667  0.938539
EA847
 1.0000000000000000
     4.423612   -0.000000    0.000000
    -0.000386    4.423612   -0.000000
     0.021646   -0.040390    4.170136
 H   O  
   8   4
Direct
  0.604499  0.638971  0.184519
  0.939765  0.635086  0.286753
  0.248766  0.602659  0.598862
  0.290045  0.847016  0.862356
  0.078381  0.100170  0.286834
  0.399378  0.228457  0.291024
  0.882651 -0.003903  0.922422
  0.625601  0.232123  0.938744
  0.765782  0.767759  0.265669
  0.272105  0.819078  0.631595
  0.194120  0.273722  0.361248
  0.821229  0.191201  0.839308
EA848
 1.0000000000000000
     4.414566    0.000000    0.000000
    -0.000335    4.414566   -0.000000
     0.019458   -0.036296    4.187244
 H   O  
   8   4
Direct
 -0.079660  0.270302  0.231345
  0.198414  0.337051  0.442371
  0.696019  0.341869  0.933947
  0.409258  0.283461  0.733065
  0.843429  1.034908  0.576069
  1.048851  0.754330  0.612629
  0.261572  1.001257  0.104131
  0.569277  0.883736  0.228728
  0.053211  0.433060  0.301569
  0.555848  0.439519  0.789018
  1.040600  0.953330  0.515555
  0.442961  0.890876  0.039151
EA849
 1.0000000000000000
     4.423473    0.000000    0.000000
    -0.000264    4.423473   -0.000000
     0.021544   -0.040447    4.170801
 H   O  
   8   4
Direct
  0.713500  0.173359  0.292664
  0.932981  0.188590  0.579339
  0.385542  0.520881  0.446031
  0.252256  0.842821  0.421330
  0.386155  0.020227  0.945795
  0.253855  0.342379  0.918527
  0.706459  0.674430  0.800334
  0.933762  0.689665  1.079961
  0.923221  0.212126  0.348161
  0.413841  0.713932  0.339965
  0.414372  0.212085  0.837331
  0.918100  0.711241  0.848947
EA850
 1.0000000000000000
     4.410426   -0.000000    0.000000
    -0.000316    4.410426   -0.000000
     0.018672   -0.034987    4.194483
 H   O  
   8   4
Direct
  0.088413  0.329372  0.091210
  0.370981  0.122659  0.072913
  0.130049  0.497442  0.613001
  0.288767  0.767741  0.449146
  0.560436  0.074139  0.595952
  0.835261  0.261813  0.711675
  0.689207  0.569862 -0.028424
  0.791679  0.834527  0.187101
  0.192318  0.167300  0.201750
  0.221957  0.694382  0.656028
  0.755144  0.056442  0.702374
  0.689752  0.639259  0.191917
EA851
 1.0000000000000000
     4.423672   -0.000000    0.000000
    -0.000310    4.423672    0.000000
     0.021571   -0.040371    4.170405
 H   O  
   8   4
Direct
  0.384748  0.641854  0.903664
  0.107012  0.853230  0.888302
  0.684810  0.259490  1.080033
  0.807538  0.237020  0.733176
  0.686576  0.754065  0.577904
  0.813344  0.740952  0.232146
  0.383230  0.141650  0.406524
  0.107056  0.354967  0.390314
  0.166312  0.641812  0.876834
  0.669663  0.141031  0.883180
  0.673472  0.641263  0.377260
  0.165043  0.143221  0.377636
EA852
 1.0000000000000000
     4.415328    0.000000    0.000000
     0.000103    4.415328    0.000000
     0.019801   -0.038165    4.185758
 H   O  
   8   4
Direct
  0.681589  0.091821  0.361658
  0.371171  0.227424  0.441888
  0.682243  0.593726  0.863214
  0.371653  0.728280  0.944855
  0.181533  0.091402  0.861701
 -0.128419  0.227968  0.942087
  0.180008  0.592578  0.369103
 -0.131883  0.727728  0.441736
  0.484663  0.133033  0.267809
  0.484780  0.634351  0.770225
 -0.015196  0.133502  0.767858
 -0.015274  0.632106  0.270753
EA853
 1.0000000000000000
     4.420115    0.000000    0.000000
     0.000213    4.420115    0.000000
     0.021085   -0.040880    4.176545
 H   O  
   8   4
Direct
  0.684391  0.821204  1.068557
  0.417179  0.993115  0.926235
  0.680399  0.322363  0.575186
  0.416454  0.493070  0.425542
  0.025238  0.495125  0.385471
  0.225139  0.273478  0.196916
  0.072510  0.654022  1.027187
  0.028462  0.964466  0.867657
  0.600985  0.885619  0.864974
  0.600636  0.384045  0.368984
  0.060778  0.280010  0.352618
  0.037990  0.748537  0.821368
EA854
 1.0000000000000000
     4.405617    0.000000    0.000000
    -0.000265    4.405617    0.000000
     0.017426   -0.032659    4.203836
 H   O  
   8   4
Direct
  0.560765  1.033059  0.624983
  0.758848  0.846561  0.390321
  0.137843  0.365623  0.353829
  0.127934  0.469804  0.707081
  0.203901  0.792577  0.141176
  0.061506  1.018258 -0.095330
  0.832651  0.452563  1.049788
  0.497746  0.417293  0.948250
  0.673655  1.047948  0.426823
  0.256022  0.469114  0.517681
  0.245229  0.978405  0.024646
  0.675999  0.544622  0.919370
EA855
 1.0000000000000000
     4.420793    0.000000    0.000000
    -0.000378    4.420793   -0.000000
     0.021330   -0.040035    4.174271
 H   O  
   8   4
Direct
  0.036985  0.162426  0.677374
  0.303104  0.316438  0.853537
  0.282082  0.797302  0.145912
  0.051169  0.691495  0.400670
  0.692355  0.561601  0.801991
  0.685507  0.905589  0.872448
  0.634061  0.287679  0.500448
  0.758508  0.198776  0.164381
  0.108980  0.357995  0.754476
  0.102690  0.861152  0.263523
  0.575447  0.744431  0.764031
  0.571903  0.240467  0.281742
EA856
 1.0000000000000000
     4.423195   -0.000000    0.000000
    -0.000324    4.423195   -0.000000
     0.021476   -0.040228    4.170957
 H   O  
   8   4
Direct
  0.311078  0.119157  0.522835
 -0.024956  0.213130  0.519006
  0.482053  0.213520  0.033313
  0.814210  0.107098  0.028517
 -0.077953  0.534942  0.154612
  0.121712  0.764549  0.337306
  0.287364  0.493678  0.755202
  0.601280  0.644949  0.757764
  0.114419  0.069073  0.612908
  0.615119  0.056305  0.112172
  0.105078  0.551143  0.281774
  0.425731  0.610001  0.623219
EA857
 1.0000000000000000
     7.366756   -0.000000   -0.000000
     0.000000    3.683378   -0.000000
     0.000000    0.000000    3.007576
 H   O  
   8   4
Direct
  0.172031  0.530471  0.324225
  0.297796  0.548655  0.726947
  0.672031  0.469529  0.324225
  0.797796  0.451345  0.726947
 -0.077969  0.030471 -0.175775
  0.047796  0.048655  0.226947
  0.422031 -0.030471 -0.175775
  0.547796 -0.048655  0.226947
  0.280172  0.420875  0.448828
  0.780172  0.579125  0.448828
  0.030172 -0.079125 -0.051172
  0.530172  0.079125 -0.051172
EA858
 1.0000000000000000
     2.891707   -0.000000   -0.000000
     0.000000    5.312934   -0.000000
    -1.443910    0.000000    5.311906
 H   O  
   8   4
Direct
  0.511919  0.060841  0.235353
  0.086980  0.207911  0.075115
  0.498763  0.924781  0.735768
  0.705869  0.733640  0.942727
  0.486681  0.679694  0.418123
  0.767461  0.591171  0.234705
  0.392283  0.354562  0.813561
  0.416693  0.312402  0.542913
  0.401091  0.230747  0.189933
  0.795378  0.842079  0.821105
  0.745868  0.728635  0.346771
  0.191014  0.333537  0.643926
EA859
 1.0000000000000000
     5.107894   -0.000000   -0.000000
    -2.553947    4.423566   -0.000000
     0.000000    0.000000    3.611809
 H   O  
   8   4
Direct
  0.102951  0.511202  0.331072
 -0.140643  0.405010  0.629580
  0.511202  0.102951  0.668928
  0.405010 -0.140643  0.370420
  0.486111  0.355689  0.401764
  0.447562  0.574910  0.651986
  0.048059 -0.102431 -0.110588
 -0.101293  0.019563  0.149766
  0.037692  0.583788  0.539347
  0.583788  0.037692  0.460653
  0.566327  0.569400  0.446250
  0.053234  0.082869 -0.039178
EA860
 1.0000000000000000
     3.891711    0.000000   -0.000000
     0.000000    3.891711   -0.000000
     0.000000    0.000000    5.388378
 H   O  
   8   4
Direct
  0.375509  0.463212  0.137608
  0.681686  0.552892  0.302381
  0.375509  0.463212  0.637608
  0.681686  0.552892  0.802381
 -0.124491 -0.036788  0.137608
  0.181686  0.052892  0.302381
 -0.124491 -0.036788  0.637608
  0.181686  0.052892  0.802381
  0.442805  0.483895  0.310010
  0.442805  0.483895  0.810010
 -0.057195 -0.016105  0.310010
 -0.057195 -0.016105  0.810010
EA861
 1.0000000000000000
     4.868756    0.000000    0.000000
     2.434378    4.216467   -0.000000
     2.434378    1.405489    3.975323
 H   O  
   8   4
Direct
  0.188205 -0.080649 -0.102603
 -0.136246  0.050283  0.160649
  0.938205  0.669351  0.647397
  0.613754  0.800283  0.910649
  0.688205  0.419351  0.397397
  0.363754  0.550283  0.660649
  0.438205  0.169351  0.147397
  0.113754  0.300283  0.410649
 -0.051959  0.030366 -0.058046
  0.698041  0.780366  0.691954
  0.448041  0.530366  0.441954
  0.198041  0.280366  0.191954
EA862
 1.0000000000000000
     5.066383    0.000000    0.000000
     0.000000    4.853755   -0.000000
     0.000000    0.000000    3.318664
 H   O  
   8   4
Direct
  0.323225  0.308186  0.485137
  0.249233  0.160742  0.875375
  0.823225  0.308186  0.631531
  0.749233  0.160742  1.021769
  0.823225  0.808186  0.131531
  0.749233  0.660742  0.521769
  0.323225  0.808186 -0.014863
  0.249233  0.660742  0.375375
  0.177542  0.281072  0.669897
  0.677542  0.281072  0.816291
  0.677542  0.781072  0.316291
  0.177542  0.781072  0.169897
EA863
 1.0000000000000000
     4.869000    0.000000    0.000000
     2.434500    4.216678   -0.000000
     2.434500    1.405559    3.975522
 H   O  
   8   4
Direct
  0.201170 -0.092298 -0.112203
 -0.121773 -0.058095  0.192629
  0.945483  0.690812  0.618970
  0.629739  0.697725  0.934171
  0.678569  0.479939  0.355850
  0.365632  0.475469  0.674786
  0.462483  0.202387  0.138059
  0.146833  0.202280  0.453670
 -0.040823  0.021633 -0.051150
  0.705536  0.809442  0.693020
  0.434373  0.564257  0.431030
  0.223190  0.243661  0.214404
EA864
 1.0000000000000000
     4.869000    0.000000    0.000000
     2.434500    4.216678   -0.000000
     2.434500    1.405559    3.975522
 H   O  
   8   4
Direct
  0.201150 -0.092280 -0.112225
 -0.121793 -0.058077  0.192607
  0.948001  0.716068  0.628483
  0.630657  0.719285  0.942197
  0.716631  0.442164  0.397768
  0.391278  0.457418  0.703656
  0.434939  0.210420  0.108622
  0.120577  0.209053  0.425510
 -0.040841  0.021663 -0.051172
  0.710734  0.749831  0.705512
  0.473289  0.526568  0.459955
  0.196613  0.334203  0.187298
EA865
 1.0000000000000000
     4.423000    0.000000   -0.000000
    -0.000309    4.423000   -0.000000
     0.021475   -0.040255    4.170750
 H   O  
   8   4
Direct
  0.319029  0.131311  0.613960
 -0.003934  0.094633  0.488611
  0.517152  0.122115 -0.009422
  0.818182  0.064458  0.159150
 -0.031992  0.508251  0.210044
  0.157587  0.780858  0.327838
  0.465231  0.607613  0.801569
  0.810701  0.614595  0.814177
  0.114537  0.083221  0.684073
  0.629418  0.175583  0.183204
  0.147155  0.626994  0.159991
  0.643254  0.609691  0.664182
EA866
 1.0000000000000000
     4.423000    0.000000   -0.000000
    -0.000309    4.423000   -0.000000
     0.021475   -0.040255    4.170750
 H   O  
   8   4
Direct
  0.287545  0.083701  0.423618
 -0.030302  0.141575  0.558206
  0.457048  0.073241  0.057822
  0.757870  0.193471 -0.072216
 -0.002494  0.436581  0.144360
  0.116624  0.734073  0.294980
  0.478793  0.608950  0.783432
  0.824230  0.612938  0.765145
  0.175955  0.099873  0.624775
  0.668083  0.101290  0.116572
  0.145902  0.596465  0.114103
  0.645377  0.609379  0.630698
EA867
 1.0000000000000000
     4.421000    0.000000    0.000000
    -0.000386    4.421000    0.000000
     0.021345   -0.039992    4.173754
 H   O  
   8   4
Direct
  0.999337  0.762013 -0.042216
  1.007084  0.797328  0.325522
  1.129937  0.196286  0.570314
  0.811139  0.312564  0.659592
  0.576802  0.688573  0.434918
  0.449722  0.530585  0.735020
  0.573296  0.129553  0.953327
  0.404293  0.021381  1.255879
  0.896004  0.699885  0.152630
  0.923361  0.129139  0.608110
  0.402571  0.684753  0.578034
  0.427125  0.194140  1.114943
EA868
 1.0000000000000000
     4.421000    0.000000    0.000000
    -0.000386    4.421000    0.000000
     0.021345   -0.039992    4.173754
 H   O  
   8   4
Direct
  1.145883  0.631846  0.033292
  0.863018  0.796835  0.163639
  0.965413  0.227243  0.409871
  1.052370  0.266340  0.765389
  0.558063  0.627371  0.480727
  0.389094  0.513199  0.780610
  0.558307  0.184314  0.956897
  0.438623  0.019121  1.256093
  0.937348  0.598297  0.099300
  0.899347  0.178751  0.626047
  0.407894  0.686871  0.640338
  0.383923  0.170758  1.099064
EA869
 1.0000000000000000
     4.408775   -0.000000    0.000000
    -0.000260    4.408775   -0.000000
     0.018128   -0.034021    4.198247
 H   O  
   8   4
Direct
  0.687318  0.085343  0.667688
  0.946550  0.185576  0.442590
  0.155939  0.635305  0.435532
  0.483985  0.664809  0.560089
  0.368030 -0.018500 -0.031224
  0.230203  0.303210  0.001472
  0.736154  0.806450  0.033032
  0.898141  0.499523 -0.024405
  0.902463  0.134451  0.663030
  0.278757  0.612459  0.625730
  0.261802  0.115247  0.116780
  0.771573  0.609323  0.128240
EA870
 1.0000000000000000
     4.403717    0.000000    0.000000
    -0.000251    4.403717    0.000000
     0.016892   -0.031709    4.208513
 H   O  
   8   4
Direct
 -0.120204  0.609823  0.835085
  0.192560  0.734596  0.917399
  0.654591  0.143332  0.878241
  0.307991  0.196607  0.890615
  1.012531  0.297435  0.332925
  0.919126  0.024726  0.540001
  0.558396  0.813596  0.457408
  0.403074  0.534209  0.305394
 -0.013387  0.722987  0.999721
  0.474896  0.106373  1.007464
  1.002388  0.228895  0.551907
  0.477660  0.613962  0.507023
EA871
 1.0000000000000000
     4.406000    0.000000    0.000000
    -0.000166    4.406000    0.000000
     0.017267   -0.032650    4.203838
 H   O  
   8   4
Direct
  0.675511  0.084040  1.106867
  0.826740 -0.031269  0.796042
  0.689276  0.618597  0.602430
  0.826305  0.472902  0.298784
  0.092922  0.515703  0.950044
  0.436814  0.584337  0.948627
  0.132418 -0.006077  0.251341
  0.421003  0.032012  0.455241
  0.749874  0.150872  0.900849
  0.741194  0.661033  0.382158
  0.240633  0.669790  0.892438
  0.213232  0.104108  0.433608
EA872
 1.0000000000000000
     4.400741   -0.000000    0.000000
    -0.000230    4.400741    0.000000
     0.016126   -0.030269    4.214290
 H   O  
   8   4
Direct
  0.079212  0.483082  0.023289
  0.364842  0.508850  0.227020
  0.607407  0.883286  0.186365
  0.897253  1.021667  0.036797
  0.784086  0.303322  0.698347
  0.692747  0.608052  0.546706
  0.111985  1.048563  0.740578
  0.326130  0.771364  0.698190
  0.154239  0.575065  0.218519
  0.776771  1.019035  0.231093
  0.773088  0.520197  0.740526
  0.324639  0.992520  0.710938
EA873
 1.0000000000000000
     4.422605    0.000000    0.000000
    -0.000262    4.422605    0.000000
     0.021570   -0.040562    4.172142
 H   O  
   8   4
Direct
 -0.063328  0.522054  0.183465
  0.216851  0.719657  0.255787
 -0.038077  0.183444  0.785781
  0.193104  0.204177  0.512547
  0.563947  0.860578  0.851375
  0.620229  0.562380  0.665723
  0.464134  0.062439  0.233912
  0.721437  0.134629  0.465906
  0.155091  0.530402  0.154796
  0.110519  0.064275  0.668397
  0.461646  0.681755  0.768116
  0.572191  0.231467  0.331013
EA874
 1.0000000000000000
     4.421186    0.000000    0.000000
     0.000017    4.421186    0.000000
     0.021230   -0.040644    4.174374
 H   O  
   8   4
Direct
  0.544051  0.897819  0.401842
  0.838796  0.847871  0.214286
  0.675061  0.468401  0.788970
  0.695878  0.410636  1.152909
  0.367672  0.427409  0.427788
  0.079038  0.472691  0.626012
  0.334165  0.864016  0.705994
  0.041755  0.913657  0.897595
  0.741182  0.988607  0.362686
  0.568083  0.375649  0.967168
  0.165621  0.345689  0.457735
  0.250940  0.981071  0.884533
EA875
 1.0000000000000000
     4.419551    0.000000    0.000000
    -0.000297    4.419551    0.000000
     0.020656   -0.038727    4.177463
 H   O  
   8   4
Direct
  0.184693  0.375380  1.080025
  0.317612  0.215502  0.786280
  0.282832  0.593954  0.378162
  0.152297  0.889419  0.521551
  0.529726  0.223265  0.485577
  0.793598  0.032676  0.608251
  0.533823  0.663112  1.057868
  0.817354  0.559703  0.871678
  0.172638  0.186785  0.958651
  0.093578  0.701521  0.415071
  0.728256  0.147141  0.423119
  0.673830  0.725878  0.890936
EA876
 1.0000000000000000
     4.418892    0.000000    0.000000
    -0.000232    4.418892    0.000000
     0.020612   -0.038774    4.179466
 H   O  
   8   4
Direct
  0.315155  0.779113  0.661587
  0.372251  1.105747  0.783940
  0.894650  0.607659  0.816521
  0.833154  0.295695  0.658996
  0.903599  0.895942  0.503889
  0.871543  0.988894  0.149839
  0.237066  0.481958  0.354578
  0.494647  0.416901  0.112227
  0.423783  0.895152  0.822907
  0.929218  0.391997  0.842756
  1.012342  0.900588  0.300988
  0.438121  0.393769  0.335954
EA877
 1.0000000000000000
     4.422270   -0.000000    0.000000
    -0.000075    4.422270    0.000000
     0.021341   -0.040616    4.173342
 H   O  
   8   4
Direct
  0.959144  0.555105  0.289378
  0.902533  0.893680  0.365734
  0.350512  0.916922  0.783019
  0.596601  0.668409  0.781956
  0.737584  0.229447  0.678851
  0.851165  0.128783  1.010874
  0.329872  0.107067  0.242715
  0.490978  0.370526  0.406766
  1.018330  0.758589  0.227080
  0.444511  0.762435  0.648103
  0.909888  0.242452  0.822328
  0.332043  0.326608  0.252796
EA878
 1.0000000000000000
     4.420487    0.000000    0.000000
    -0.000070    4.420487    0.000000
     0.021206   -0.040497    4.175775
 H   O  
   8   4
Direct
  0.622218  0.475295  0.433703
  0.360481  0.361841  0.226917
  0.622537  0.975357  0.934466
  0.364811  0.863169  0.720818
  0.949511  0.653203  0.409630
  0.995886  0.981615  0.296113
  0.803115  0.295078  0.864657
  1.146791  0.351375  0.836556
  0.415832  0.399633  0.448924
  0.416250  0.898704  0.944314
  0.975536  0.774552  0.218364
  0.972680  0.278370  0.716400
EA879
 1.0000000000000000
     4.407193    0.000000    0.000000
    -0.000299    4.407193    0.000000
     0.017816   -0.033348    4.201556
 H   O  
   8   4
Direct
  0.578449  1.085086  0.338475
  0.356002  0.859193  0.179813
  0.546002  0.690214  0.746400
  0.373322  0.388435  0.787273
 -0.038113  1.090311  0.798120
  0.099995  0.809754  0.637733
 -0.112882  0.443113  0.097691
  0.168557  0.474337  0.306543
  0.550908  0.959362  0.149420
  0.576249  0.475523  0.786718
  0.089931  1.029266  0.620260
  0.089133  0.530837  0.099858
EA880
 1.0000000000000000
     4.415805    0.000000    0.000000
    -0.000214    4.415805    0.000000
     0.019967   -0.037668    4.184743
 H   O  
   8   4
Direct
 -0.045780  0.430927  0.299603
  0.240173  0.520430  0.116378
  0.698333  0.428269  0.948896
  0.400647  0.529048  0.790356
  0.314376  1.036567  0.054851
 -0.012864  0.924215  0.042084
  0.836610 -0.028202  0.631054
  0.499752  0.041493  0.564167
  0.163491  0.490601  0.331898
  0.609669  0.590526  0.824925
  0.165282  0.923599  0.177294
  0.648672  0.032536  0.735566
EA881
 1.0000000000000000
     4.411787    0.000000    0.000000
    -0.000258    4.411787   -0.000000
     0.018792   -0.035260    4.192530
 H   O  
   8   4
Direct
  1.142449  0.602491  0.639734
  0.858627  0.405452  0.604041
  0.361337  0.391011  0.109453
  0.644842  0.587803  0.149871
  1.092135  0.154327  0.370837
  0.810358 -0.045990  0.343155
  0.480704  0.142884  0.665051
  0.366399 -0.010838  0.973075
  0.936337  0.580486  0.720392
  0.428403  0.585169  0.195535
  1.020390 -0.032862  0.273588
  0.402473 -0.047675  0.746966
EA882
 1.0000000000000000
     4.413721    0.000000    0.000000
    -0.000311    4.413721    0.000000
     0.019437   -0.036450    4.188312
 H   O  
   8   4
Direct
  0.532972  0.272497  0.603448
  0.379076  0.082855  0.339229
  0.535494  0.772857  1.098858
  0.375162  0.585981  0.836434
  1.023160  0.712593  0.531858
  0.912219  0.381183  0.513507
  1.022764  0.212833  1.035252
  0.913300 -0.118833  1.014413
  0.528905  0.070842  0.508054
  0.526820  0.571392  1.003254
  1.003404  0.540916  0.386265
  1.003174  0.042303  0.888167
EA883
 1.0000000000000000
     4.420980   -0.000000    0.000000
    -0.000373    4.420980    0.000000
     0.021344   -0.040092    4.174794
 H   O  
   8   4
Direct
  0.452124  0.306318  0.734908
  0.792335  0.274078  0.674212
 -0.047821  0.804945  0.734135
  0.291997  0.773142  0.670953
  0.732302  0.686789  0.133193
  0.935036  0.474122  0.329639
  0.202996  0.061911  0.274646
  0.542621  0.132457  0.316516
  0.633961  0.425593  0.697973
  0.133486  0.924417  0.695355
  0.939791  0.657646  0.202409
  0.356427  0.213479  0.229087
EA884
 1.0000000000000000
     4.422447   -0.000000    0.000000
    -0.000147    4.422447   -0.000000
     0.021523   -0.040738    4.172666
 H   O  
   8   4
Direct
  0.116868  0.983063  0.854127
  0.081813  0.639548  0.796123
  0.145702  0.404248  0.488630
  0.165492  0.095338  0.321397
  0.641150  0.902209  0.493344
  0.666910  0.595845  0.322434
  0.585229  0.502121  0.944505
  0.850187  0.281752  0.884493
  0.227674  0.803881  0.782766
  0.278163  0.282239  0.352418
  0.776725  0.783904  0.356904
  0.633499  0.287535  0.924792
EA885
 1.0000000000000000
     4.420000    0.000000    0.000000
     0.000231    4.420000    0.000000
     0.021069   -0.040899    4.176747
 H   O  
   8   4
Direct
 -0.068450  0.518404  0.513591
  0.144970  0.757862  0.376977
  0.430268  0.017940  0.510668
  0.645546  0.256240  0.375141
 -0.069483  0.017724  1.011107
  0.145222  0.256058  0.874617
  0.428282  0.521087  1.016546
  0.645722  0.754074  0.875482
  0.077237  0.550800  0.341650
  0.577186  0.049401  0.339761
  0.076766  0.049204  0.839554
  0.573929  0.547959  0.843487
EA886
 1.0000000000000000
     4.421364    0.000000    0.000000
     0.000020    4.421364    0.000000
     0.021323   -0.040809    4.174471
 H   O  
   8   4
Direct
  0.717007  0.814048  0.333295
  0.984133  1.002061  0.213619
  0.216874  0.312502  0.326521
  0.485687  0.502660  0.214096
  0.375547  0.707739  0.749219
  0.057128  0.745769  0.606106
  0.823212  0.188309  0.557130
  0.530061  0.061413  0.706796
  0.809080  0.889663  0.137426
  0.312232  0.390476  0.133487
  0.166571  0.640634  0.773012
  0.603414  0.199502  0.543637
EA887
 1.0000000000000000
     4.420260    0.000000    0.000000
     0.000071    4.420260    0.000000
     0.021142   -0.040685    4.176229
 H   O  
   8   4
Direct
  0.498031  0.023459  0.288340
  0.363861  0.316756  0.420483
  0.767150  0.270054  0.779200
  0.997210  0.020500  0.862316
  0.880636  0.758900  0.461096
  0.880190  0.524090  0.184687
  0.441749  0.779642  0.803405
  0.339604  0.497974  0.991078
  0.308082  0.134063  0.304061
  0.785774  0.078087  0.888987
  0.787656  0.570197  0.391215
  0.263697  0.680313  0.891028
EA888
 1.0000000000000000
     4.420466    0.000000    0.000000
    -0.000057    4.420466    0.000000
     0.021200   -0.040515    4.175817
 H   O  
   8   4
Direct
  0.417129  0.701188  0.413254
  0.290955  1.021842  0.381975
  0.916343  0.201931  0.416391
  0.791949  0.523159  0.383472
  0.905362  1.113218  0.868706
  0.882282  0.765314  0.885469
  0.357380  0.514520  0.796514
  0.447008  0.347825  1.105060
  0.406931  0.894970  0.525604
  0.907480  0.396396  0.527619
  0.942490  0.943190  1.009078
  0.420661  0.548667  1.016687
EA889
 1.0000000000000000
     4.337569   -0.000000   -0.000000
     0.000000    4.337569   -0.000000
     0.000000    0.000000    4.337569
 H   O  
   8   4
Direct
  0.089590  0.609225  0.697360
  0.095398  0.576368  1.047677
  0.717026  0.066806  0.693676
  1.015739  0.105063  0.511626
  0.457806  0.846139  0.190359
  0.769593  0.982552  0.100830
  0.381650  0.550061  0.423664
  0.374365  0.198283  0.417772
  0.190012  0.689408  0.879963
  0.892235  0.203132  0.669698
  0.647601  0.796309  0.083812
  0.368985  0.376656  0.283564
EA890
 1.0000000000000000
     5.783505    0.000000    0.000000
     0.695454    2.962406   -0.000000
    -2.254522    1.091774    4.763251
 H   O  
   8   4
Direct
  0.045791 -0.030016  0.322837
  0.142232  0.383104  0.275701
  0.954209  1.030016  0.677163
  0.857768  0.616896  0.724299
  0.545791  0.469984  0.322837
  0.642232  0.883104  0.275701
  0.454209  0.530016  0.677163
  0.357768  0.116896  0.724299
 -0.013572  0.275262  0.204262
  1.013572  0.724738  0.795738
  0.486428  0.775262  0.204262
  0.513572  0.224738  0.795738
EA891
 1.0000000000000000
     4.782048   -0.000000   -0.000000
     0.000000    4.782048   -0.000000
     0.000000    0.000000    3.568710
 H   O  
   8   4
Direct
  0.316985  0.435440 -0.044192
  0.322779  0.124772  0.053698
  0.104426  0.866832  0.398922
  0.344881  0.669168  0.493628
  0.732178  0.292370  0.310352
  0.781769  0.091714  0.636283
  0.735481  0.778002 -0.206771
  0.630407  0.661094  0.165488
  0.195735  0.275288 -0.009507
  0.215194  0.799500  0.607450
  0.821553  0.280416  0.553365
  0.798612  0.725404  0.041284
EA892
 1.0000000000000000
     4.156475    0.000000    0.000000
    -1.157712    3.991991    0.000000
    -1.561962   -0.610812    4.918406
 H   O  
   8   4
Direct
  1.025228 -0.015970  0.361811
  1.022140  0.124795  0.635368
  0.547844  0.461414  0.361811
  0.544756  0.602179  0.635368
  0.797844  0.211414 -0.138189
  0.794756  0.352179  0.135368
  0.275228  0.734030 -0.138189
  0.272140  0.874795  0.135368
  0.918708 -0.074901  0.502821
  0.441324  0.402483  0.502821
  0.691324  0.152483  0.002821
  0.168708  0.675099  0.002821
EA893
 1.0000000000000000
     4.868756   -0.000000    0.000000
    -2.434378    4.216467    0.000000
    -2.434378   -1.405489    3.975323
 H   O  
   8   4
Direct
  0.516504  0.145324  0.642710
  0.381531  0.265397  0.807604
  0.016504  0.395324  0.392710
 -0.118469  0.515397  0.557604
  0.516504  0.645324  0.142710
  0.381531  0.765397  0.307604
  0.016504 -0.104676 -0.107290
 -0.118469  0.015397  0.057604
  0.601965  0.339278  0.799685
  0.101965  0.589278  0.549685
  0.601965  0.839278  0.299685
  0.101965  0.089278  0.049685
EA894
 1.0000000000000000
     3.960563    0.000000    0.000000
     0.000000    3.960563    0.000000
     0.000000    0.000000    5.202659
 H   O  
   8   4
Direct
 -0.144713 -0.008267  0.026209
  0.071273  0.065509  0.262616
 -0.144713 -0.008267  0.526209
  0.071273  0.065509  0.762616
  0.355287  0.491733  0.460632
  0.571273  0.565509  0.697039
  0.355287  0.491733 -0.039368
  0.571273  0.565509  0.197039
  0.073440 -0.057242  0.101616
  0.073440 -0.057242  0.601616
  0.573440  0.442758  0.536039
  0.573440  0.442758  0.036039
