EA390
 1.0000000000000000
     4.556000   -0.000000    0.000000
     0.032681    4.555883   -0.000000
    -0.026009   -0.032206    3.931782
 H   O  
   8   4
Direct
  0.166574  0.939256  0.486870
  0.330022  1.074057  0.793322
  0.170354  0.436275 -0.015718
  0.328999  0.574339  0.292333
  0.669925  0.430555  0.793060
  0.828107  0.293220  0.485252
  0.667628  0.930287  0.292733
  0.827124  0.793104 -0.014356
  0.334236  0.908340  0.636616
  0.336757  0.408023  0.136598
  0.834639  0.459278  0.641393
  0.832478  0.959512  0.141374
EA21
 1.0000000000000000
     4.779000   -0.000000   -0.000000
     2.054401    4.314890    0.000000
     0.670146   -2.594441    3.957097
 H   O  
   8   4
Direct
  0.566821 -0.178580  0.517342
  0.559583  0.148433  0.523136
  0.307444  0.328713  0.275433
  0.307469  0.650214  0.275450
  0.807343  0.328837  0.775568
  0.807250  0.650340  0.775513
  0.055882 -0.169785  0.026871
  0.055794  0.151701  0.026754
  0.478863 -0.013756  0.439969
  0.224447  0.490103  0.193863
  0.726311  0.488421  0.691970
 -0.025988 -0.009497 -0.055942
EA402
 1.0000000000000000
     4.587000    0.000000    0.000000
     0.034425    4.586871    0.000000
    -0.028712   -0.029581    3.879781
 H   O  
   8   4
Direct
  0.321048  0.113736  0.507811
  0.655272  0.111940  0.510316
  0.473773  0.447925  0.309978
  0.475535  0.781815  0.309057
  0.976304  0.772109  0.511025
  0.975279  0.437956  0.510377
  0.819807  0.110598  0.010861
  1.154042  0.109210  0.010016
  0.488090  0.116938  0.662725
  0.467430  0.613666  0.155590
  0.967244  0.605892  0.664211
  0.987997  0.103198  0.164068
EA16
 1.0000000000000000
     4.869000   -0.000000   -0.000000
    -2.434500    4.216678   -0.000000
     0.000000   -2.811118    3.975522
 H   O  
   8   4
Direct
  0.075203  0.394814  0.486641
  0.083842  0.085887  0.173984
  0.339099  0.909149  0.240664
  0.338603  0.593618 -0.075180
  0.833751  0.903706  0.740463
  0.833511  0.588457  0.424673
  0.589376  0.409477  0.990857
  0.588998  0.093966  0.675106
  0.170361  0.246538  0.417816
  0.424022  0.750271  0.168631
  0.919725  0.745856  0.668407
  0.672391  0.248713  0.918856
EA113
 1.0000000000000000
     4.857000    0.000000   -0.000000
    -2.392660    4.226775    0.000000
     0.000000   -2.729601    3.975043
 H   O  
   8   4
Direct
  0.304609  0.242844  0.811615
  0.610010  0.220797  0.785883
  0.550600  0.725759  0.536080
  0.867037  0.726217  0.536352
  0.051548  0.723932  0.030699
  0.370450  0.729227  0.032385
  0.800325  0.225138  0.279101
  1.116080  0.224383  0.278762
  0.546556  0.401022  0.876086
  0.792826  0.896403  0.623165
  0.293520  0.896536  0.117112
  1.042491  0.395005  0.366975
EA667
 1.0000000000000000
     3.436000   -0.000000   -0.000000
     0.000000    3.257000   -0.000000
     0.000000    0.000000    7.294000
 H   O  
   8   4
Direct
  0.437429  0.339085  0.174446
  0.077806  0.061693  0.167061
  0.906457  0.894877  0.419848
  0.575887  0.579819  0.420420
  0.913411  0.889573  0.919264
  0.583507  0.571223  0.921027
  0.406659  0.399670  0.669745
  0.076854  0.080823  0.671265
  0.255814  0.213952  0.089349
  0.750361  0.725586  0.338843
  0.742288  0.735620  0.838914
  0.239369  0.241077  0.589172
EA741
 1.0000000000000000
     4.424000    0.000000   -0.000000
    -0.000463    4.424000    0.000000
     0.021538   -0.039944    4.168753
 H   O  
   8   4
Direct
  0.651229  0.281553  0.204430
  0.658465  0.627127  0.204107
  0.832831  0.955037  0.694976
  0.487351  0.955047  0.695728
  0.161185  0.781436  0.184944
  0.159840  1.127453  0.187539
  0.159847  0.281885  0.687623
  0.159875  0.627566  0.689193
  0.655493  0.452972  0.060193
  0.660473  0.956335  0.551282
  0.158629  0.954243  0.041983
  0.159016  0.454166  0.544142
EA560
 1.0000000000000000
     4.422000   -0.000000   -0.000000
     0.003241    4.421999    0.000000
     0.017338   -0.042046    4.173752
 H   O  
   8   4
Direct
  0.747167  0.932744  0.454898
  0.759638  0.586631  0.460986
  0.758099  0.430339  0.961982
  0.758104  0.084542  0.959994
  0.086383  0.758659  0.969238
  0.431930  0.758916  0.969042
  0.259254  0.085957  0.478776
  0.259365  0.431719  0.479248
  0.758152  0.756408  0.314101
  0.756561  0.257011  0.816881
  0.259613  0.761056  0.825275
  0.258736  0.257702  0.335101
EA538
 1.0000000000000000
     4.869000   -0.000000   -0.000000
     0.000000    4.869000    0.000000
     2.434500   -2.434500    3.442903
 H   O  
   8   4
Direct
  0.673410  0.469891 -0.193773
  0.342486  0.506233  0.142950
  0.401861  0.260506  0.346186
  0.088492  0.259382  0.662213
  0.900427  0.760318  0.345958
  0.588627  0.759490  0.664087
  0.151231  0.016177 -0.147708
 -0.162969  0.015100  0.167634
  0.585512  0.412321 -0.008270
  0.332155  0.174749  0.504155
  0.832537  0.667379  0.496491
  0.080827 -0.072158  0.007689
EA676
 1.0000000000000000
     4.424000    0.000000   -0.000000
    -0.000463    4.424000    0.000000
     0.021538   -0.039944    4.168753
 H   O  
   8   4
Direct
  0.175819  0.724226  0.075717
  0.521208  0.729845  0.081358
  0.673121  0.728836  0.580600
  1.018925  0.728548  0.578636
  0.845712  0.057071  0.068451
  0.845450  0.402511  0.068730
  0.345070  0.056349  0.567577
  0.345106  0.401788  0.567984
  0.345846  0.726870  0.222994
  0.846143  0.727780  0.723919
  0.845795  0.230926  0.212587
  0.345296  0.230163  0.711790
EA510
 1.0000000000000000
     4.420000    0.000000   -0.000000
     0.000231    4.420000    0.000000
     0.021069   -0.040899    4.176747
 H   O  
   8   4
Direct
  0.355672  0.434419  0.914008
  0.009430  0.433468  0.916321
  0.856187  0.933885  0.920422
  0.510038  0.933889  0.921252
  0.855598  0.432918  0.414871
  0.509390  0.433414  0.416284
  0.356255  0.934153  0.420313
  0.010103  0.933919  0.421305
  0.182309  0.434633  0.771195
  0.683401  0.934148  0.776727
  0.682578  0.433923  0.271567
  0.183406  0.934444  0.276700
EA322
 1.0000000000000000
     4.420000    0.000000   -0.000000
     0.000231    4.420000    0.000000
     0.021069   -0.040899    4.176747
 H   O  
   8   4
Direct
  0.327680  0.432601  1.051085
 -0.018139  0.434772  1.044576
  0.830349  0.933071  1.043788
  0.484129  0.933974  1.044929
  0.830920  0.435211  0.545591
  0.484667  0.434716  0.547765
  0.330566  0.932658  0.543631
 -0.015641  0.934533  0.545275
  0.157783  0.433918  0.903626
  0.657418  0.934112  0.900333
  0.657562  0.435310  0.402634
  0.157466  0.934560  0.400435
EA354
 1.0000000000000000
     4.417000   -0.000000   -0.000000
     0.014879    4.416975   -0.000000
    -0.000219   -0.040518    4.182804
 H   O  
   8   4
Direct
  1.079278  0.632211  0.510216
  0.945552  0.793248  0.807130
  0.578008  0.636755  0.006851
  0.444929  0.793535  0.306553
  0.430422  0.294105  0.498617
  0.297594  0.140754  0.797101
  0.933076  0.294022 -0.001558
  0.797725  0.142858  0.296848
  0.912153  0.624238  0.661095
  0.413080  0.624477  0.160219
  0.463842  0.127758  0.645047
  0.964461  0.127859  0.145559
EA861
 1.0000000000000000
     4.869000    0.000000    0.000000
     2.434500    4.216678   -0.000000
     2.434500    1.405559    3.975522
 H   O  
   8   4
Direct
  0.201160 -0.092289 -0.112214
 -0.121783 -0.058086  0.192618
  0.948652  0.700868  0.625539
  0.631788  0.706429  0.939693
  0.698018  0.460472  0.376441
  0.378772  0.465993  0.689047
  0.450033  0.201532  0.124593
  0.135024  0.200958  0.440843
 -0.040832  0.021648 -0.051161
  0.705027  0.781612  0.696328
  0.454130  0.545012  0.445092
  0.205906  0.289562  0.196833
EA366
 1.0000000000000000
     4.420000    0.000000    0.000000
    -0.000463    4.420000   -0.000000
     0.021944   -0.040822    4.176743
 H   O  
   8   4
Direct
  0.917176  0.802973  1.001779
  0.757430  0.934089  0.706197
  0.910573  0.297717  0.506232
  0.759612  0.434828  0.208436
  0.410449  0.281913 -0.302047
  0.257738  0.145640 -0.003319
  0.413661  0.782141  0.198027
  0.259396  0.645363  0.495751
  0.747585  0.769096  0.858531
  0.743715  0.268348  0.358482
  0.242507  0.311477 -0.153995
  0.245436  0.811895  0.345731
EA868
 1.0000000000000000
     4.421000    0.000000    0.000000
    -0.000386    4.421000    0.000000
     0.021345   -0.039992    4.173754
 H   O  
   8   4
Direct
  1.151559  0.638925  0.018109
  1.000890  0.776080  0.320419
  1.002096  0.276429  0.515820
  1.151552  0.135101  0.812605
  0.649858  0.616838  0.512829
  0.498422  0.477551  0.810592
  0.652973  0.113885  1.008999
  0.498739 -0.022992  1.307259
  0.988198  0.606507  0.171121
  0.984736  0.108774  0.663965
  0.482912  0.645517  0.662615
  0.483671  0.142391  1.155764
EA182
 1.0000000000000000
     4.869000    0.000000   -0.000000
     2.434500    4.216678    0.000000
    -2.434500   -1.405559    3.975522
 H   O  
   8   4
Direct
  0.326056  0.523518  0.508997
  0.617595  0.530160  0.471329
  0.566151  0.783377  0.238756
  0.877343  0.775525  0.223439
 -0.183876  0.031133 -0.017959
  0.131180  0.024465 -0.025034
  0.068391  0.275218  0.733037
  0.380034  0.273766  0.724376
  0.568341  0.435193  0.569018
  0.809963  0.691159  0.315315
  0.059882 -0.063105  0.059864
  0.312341  0.188431  0.814958
EA127
 1.0000000000000000
     4.857000    0.000000   -0.000000
    -2.392660    4.226775    0.000000
     0.000000   -2.729601    3.975043
 H   O  
   8   4
Direct
  0.341614  0.267799  0.841546
  0.634974  0.223524  0.791269
  0.578001  0.727347  0.539873
  0.895825  0.730093  0.541698
  0.081493  0.728103  0.038406
  0.400830  0.734135  0.042160
  0.827793  0.226943  0.284666
  1.141719  0.223871  0.285170
  0.581834  0.413150  0.887221
  0.820395  0.899151  0.630741
  0.323353  0.900925  0.125583
  1.069749  0.395989  0.370500
EA386
 1.0000000000000000
     4.428000    0.000000   -0.000000
     0.032072    4.427884    0.000000
    -0.026005   -0.037948    4.161746
 H   O  
   8   4
Direct
  0.482656  0.660159  0.698961
  0.338125  0.793233  0.392728
  0.342128  0.294770  0.200166
  0.494201  0.150041 -0.096416
  0.986304  0.640742  0.199467
  0.835008  0.497332 -0.098333
  0.840189  0.007430  0.393404
  0.997622  0.290604  0.532914
  0.323563  0.625515  0.540952
  0.327188  0.125324  0.051270
  0.820670  0.668983  0.048088
  0.828638  0.155620  0.566985
EA874
 1.0000000000000000
     4.421000   -0.000000    0.000000
     0.000000    4.421000   -0.000000
     0.021204   -0.040659    4.174748
 H   O  
   8   4
Direct
  0.545849  0.919454  0.408047
  0.891603  0.900188  0.400666
  0.716958  0.566269  0.889039
  0.860690  0.416032  1.184279
  0.358601  0.411433  0.381176
  0.220323  0.563529  0.682904
  0.391787  0.902425  0.897760
  0.045514  0.907153  0.903585
  0.720436  0.904464  0.548229
  0.691793  0.399149  1.036793
  0.190469  0.397620  0.531420
  0.220053  0.897505  1.044107
EA481
 1.0000000000000000
     4.417000   -0.000000   -0.000000
    -0.001002    4.417000    0.000000
     0.027962   -0.050586    4.182601
 H   O  
   8   4
Direct
  0.795078  0.538461  0.870600
  0.638571  0.677863  0.577832
  0.790713  0.037696  0.372703
  0.637999  0.177982  0.078225
  0.128520  0.710396  0.356680
  0.132690  0.363935  0.348807
  0.127901  1.210412  0.856623
  0.132707  0.863962  0.848843
  0.624133  0.511496  0.727750
  0.621389  0.011413  0.227668
  0.129203  0.538616  0.209039
  0.127093  1.038571  0.709076
EA266
 1.0000000000000000
     4.415000    0.000000    0.000000
     0.059717    4.414596    0.000000
    -0.056660   -0.055899    4.188244
 H   O  
   8   4
Direct
  0.857336  0.805031  0.641917
  0.876522  1.151084  0.641427
  0.870240  0.306908  0.136830
  0.875622  0.653386  0.144558
  0.365098 -0.164051  0.415502
  0.210968 -0.020852  0.119801
  0.364661  0.335503  0.914882
  0.210707  0.478566  0.618968
  0.870658  0.979676  0.785074
  0.870534  0.478963  0.284187
  0.381225  0.002609  0.267074
  0.381231  0.501713  0.765960
EA801
 1.0000000000000000
     4.424000   -0.000000   -0.000000
    -0.000386    4.424000    0.000000
     0.021616   -0.040245    4.169750
 H   O  
   8   4
Direct
  0.111637  0.742725 -0.130491
 -0.024234  0.589286  0.168739
 -0.049173  0.088758  0.368736
 -0.184341  0.241127  0.671592
  0.311437  1.237514  1.170106
  0.458243  1.080405  0.876419
  0.466979  0.574246  0.383432
  0.470820  0.920066  0.386573
 -0.054463  0.756562  0.022645
 -0.021620  0.258862  0.515007
  0.486027  1.246391  1.028064
  0.450536  0.747424  0.527869
EA442
 1.0000000000000000
     4.416000    0.000000   -0.000000
    -0.001619    4.416000    0.000000
     0.031196   -0.055001    4.185522
 H   O  
   8   4
Direct
  0.390317  0.952710  0.129112
  0.044098  0.956047  0.124360
  0.204356  0.298640  0.919557
  0.062081  0.447536  0.624236
  0.720119  0.623070  0.144454
  0.722028  0.276658  0.138766
  0.719017  0.123083  0.643257
  0.719865 -0.223374  0.637543
  0.214513  0.963494  0.269644
  0.229479  0.466207  0.772995
  0.725075  0.449354  0.285313
  0.718429 -0.050700  0.784114
EA421
 1.0000000000000000
     4.416000    0.000000   -0.000000
    -0.001619    4.416000    0.000000
     0.031196   -0.055001    4.185522
 H   O  
   8   4
Direct
  0.368986  0.965166  0.212524
  0.022902  0.971472  0.211311
  0.184301  0.313437  1.006133
  0.041341  0.463037  0.711578
  0.699539  0.640091  0.231992
  0.700775  0.293622  0.226104
  0.696484  0.140200  0.730217
  0.699694 -0.206260  0.724200
  0.194586  0.977310  0.354924
  0.209156  0.481271  0.859866
  0.704096  0.466245  0.372724
  0.698130 -0.033706  0.870860
EA317
 1.0000000000000000
     4.446000    0.000000   -0.000000
    -0.000466    4.446000    0.000000
     0.008790   -0.015561    4.127961
 H   O  
   8   4
Direct
  1.000195  0.235215  0.472540
  1.007757  0.579371  0.460208
  0.507680  0.580413  1.255158
  0.507802  0.236534  1.255200
  0.679193  0.909173  0.465031
  0.334630  0.909584  0.465261
  0.178954  0.909837  0.968073
 -0.165303  0.909776  0.968022
  1.007132  0.412141  0.611399
  0.507596  0.407969  1.109724
  0.506757  0.909211  0.610341
  0.006546  0.909420  1.113815
EA476
 1.0000000000000000
     4.420000    0.000000   -0.000000
     0.000231    4.420000    0.000000
     0.021069   -0.040899    4.176747
 H   O  
   8   4
Direct
  0.342026  0.397890  0.717870
  0.485277  0.251562  1.016379
  0.836157  0.902369  0.722978
  0.984155  0.753108  1.017233
  0.839193  0.403540  0.518010
  0.989000  0.254903  0.220368
  0.337274  0.903939  0.519083
  0.486509  0.753463  0.221948
  0.507361  0.419827  0.869446
  1.005197  0.921493  0.870287
  1.008219  0.424062  0.369654
  0.506124  0.923392  0.370300
EA651
 1.0000000000000000
     4.372000   -0.000000   -0.000000
    -0.000076    4.372000    0.000000
     0.010138   -0.019157    4.270945
 H   O  
   8   4
Direct
  0.856383  0.609028  1.031829
  0.712120  0.317994  0.889370
  0.210489  1.097748  0.183871
  0.363506  0.961895 -0.111945
  0.206377  0.596828  0.687748
  0.356959  0.457826  0.392784
  0.709901  0.802345  0.405554
  0.861710  0.945566  0.697284
  0.690862  0.463520  1.061068
  0.194579  0.931094  0.032848
  0.186707  0.430980  0.536555
  0.695069  0.974450  0.550077
EA534
 1.0000000000000000
     5.260000   -0.000000   -0.000000
     0.000000    3.037000   -0.000000
    -0.877016    0.000000    5.109276
 H   O  
   8   4
Direct
  0.909298  0.674762  0.802495
  0.732925  0.372191  0.934182
  0.223530  0.148562  0.956056
  0.250923 -0.281474  0.802793
  0.342848  0.687600  0.276854
  0.205883  0.373585  0.442153
  0.842193 -0.131274  0.269077
  0.701349  0.187166  0.427665
  0.742789  0.526592  0.771740
  0.246542  0.037481  0.785535
  0.181210  0.531795  0.276934
  0.680365  0.026218  0.263358
EA435
 1.0000000000000000
     4.518000   -0.000000    0.000000
     0.020265    4.517955   -0.000000
    -0.009353   -0.034088    3.998844
 H   O  
   8   4
Direct
  0.880053  0.852398  0.549553
  0.735435  1.009814  0.249475
  0.888379  0.354497  1.053483
  0.738370  0.506281  0.752943
  0.385970  0.856472  1.051808
  0.234860  1.007786  0.751504
  0.388680  0.356791  0.553200
  0.239002  0.508187  0.252281
  0.902015  1.021586  0.403062
  0.906483  0.521981  0.903932
  0.402822  1.024434  0.902672
  0.406773  0.524313  0.403726
EA282
 1.0000000000000000
     4.415000    0.000000    0.000000
     0.059717    4.414596    0.000000
    -0.056660   -0.055899    4.188244
 H   O  
   8   4
Direct
  0.782859  0.866927  0.720036
  0.913521  1.156719  0.574815
  0.938223  0.335648  0.086653
  0.945688  0.681951  0.096775
  0.437611 -0.118963  0.371631
  0.285193  0.019745  0.073431
  0.432268  0.380211  0.866713
  0.277319  0.519579  0.569368
  0.949853  1.007537  0.740689
  0.934789  0.506916  0.234733
  0.453810  0.046416  0.221783
  0.447969  0.545162  0.715972
EA399
 1.0000000000000000
     4.436000    0.000000    0.000000
     0.004645    4.435998    0.000000
     0.005861   -0.023741    4.145928
 H   O  
   8   4
Direct
  0.817974  0.079081  0.241578
  1.162738  0.067174  0.252888
  0.645447  0.556592 -0.032366
  0.500933  0.404805  0.263929
  0.660293  0.049450  0.751753
  0.500162 -0.096935  0.459820
  0.145428  0.556126  0.468286
  0.004553  0.399018  0.763772
  0.994344  0.062145  0.102972
  0.476945  0.572883  0.117035
  0.492364  0.076463  0.603882
 -0.020726  0.570348  0.620971
EA541
 1.0000000000000000
     4.417000    0.000000    0.000000
    -0.000617    4.417000    0.000000
     0.026860   -0.049628    4.181619
 H   O  
   8   4
Direct
  0.253720  0.584561 -0.001335
  0.411654  0.716682  0.296731
  0.750047  0.721301  0.634788
  0.901193  0.430942  0.500241
  0.749668  0.221045  0.134472
  0.901492 -0.069005 -0.000065
  0.253151  0.077599  0.498606
  0.407968  0.217416  0.794928
  0.422303  0.551042  0.141968
  0.921212  0.586622  0.664997
  0.920422  0.085985  0.165552
  0.422043  0.049712  0.642902
EA525
 1.0000000000000000
     4.417000    0.000000    0.000000
    -0.000617    4.417000    0.000000
     0.026860   -0.049628    4.181619
 H   O  
   8   4
Direct
  0.286087  0.442843  0.008588
  0.444468  0.586526  0.300681
  0.787660  0.592603  0.640614
  0.938881  0.302985  0.504365
  0.787924  0.092670  0.140625
  0.938860 -0.196974  0.004142
  0.291362 -0.050815  0.502535
  0.445856  0.087274  0.799859
  0.457795  0.417924  0.149732
  0.957470  0.456410  0.671640
  0.958995 -0.042319  0.169908
  0.459850 -0.079788  0.647058
EA449
 1.0000000000000000
     4.430000    0.000000   -0.000000
     0.022036    4.429945    0.000000
    -0.011321   -0.038696    4.157805
 H   O  
   8   4
Direct
  0.562426  0.687125  0.036981
  0.406364  0.971245  0.178961
  0.901859  0.828740  0.556950
  1.247132  0.827084  0.560464
 -0.098961  0.322415  0.057099
  0.246205  0.331717  0.056959
  0.400570  0.330945  0.558460
  0.746161  0.331003  0.559123
  0.575690  0.834008  0.211802
  1.073476  0.825940  0.702896
  0.074509  0.313856  0.200823
  0.573350  0.341471  0.703107
EA803
 1.0000000000000000
     4.424000   -0.000000   -0.000000
    -0.000386    4.424000    0.000000
     0.021616   -0.040245    4.169750
 H   O  
   8   4
Direct
  0.171959  0.614418 -0.068656
  0.010635  0.466263  0.219170
 -0.001600 -0.043042  0.711086
 -0.005738  0.302756  0.710894
  0.337654  1.115326  1.223113
  0.494397  0.966278  0.930133
  0.507198  0.458526  0.436577
  0.510521  0.804192  0.438406
 -0.006712  0.631053  0.067188
  0.004288  0.128694  0.567066
  0.514035  1.131471  1.084295
  0.500561  0.631944  0.581351
EA483
 1.0000000000000000
     4.428000   -0.000000    0.000000
     0.018316    4.427962    0.000000
    -0.004649   -0.041313    4.161792
 H   O  
   8   4
Direct
  0.985981  0.897662  0.395615
  0.835433  0.609223  0.259167
  0.820418  0.091536  0.777554
  0.827218  0.436786  0.771564
  0.327751  0.572585  0.768176
  0.326635  0.918313  0.772513
  0.329396  0.072180  0.264179
  0.325783  0.417529  0.273069
  0.816925  0.761556  0.428144
  0.831152  0.267547  0.918432
  0.331140  0.745114  0.914804
  0.319654  0.242563  0.412862
EA346
 1.0000000000000000
     4.446000    0.000000   -0.000000
    -0.000466    4.446000    0.000000
     0.008790   -0.015561    4.127961
 H   O  
   8   4
Direct
  1.007466  0.364012  0.807850
  0.852963  0.079001  0.671110
  0.516759  0.060528  1.005107
  0.517886  0.404412  1.003249
  0.692734  0.715784  0.514738
  0.348376  0.722486  0.516014
  0.191554  0.720194  1.012451
 -0.152809  0.721192  1.013616
  1.022907  0.213479  0.636936
  0.516092  0.233402  1.149388
  0.521180  0.737034  0.659728
  0.019424  0.703127  1.157070
EA866
 1.0000000000000000
     4.423000    0.000000   -0.000000
    -0.000309    4.423000   -0.000000
     0.021475   -0.040255    4.170750
 H   O  
   8   4
Direct
  0.304489  0.079257  0.424353
 -0.042081  0.078281  0.423445
  0.457426  0.075974 -0.073532
  0.803545  0.070057 -0.076128
 -0.038305  0.433713  0.080903
  0.116319  0.720896  0.216283
  0.453662  0.572658  0.696421
  0.799458  0.576181  0.692827
  0.130251  0.057414  0.565679
  0.631191  0.092949  0.067975
  0.126752  0.574242  0.041197
  0.625859  0.573121  0.550847
EA380
 1.0000000000000000
     4.446000    0.000000   -0.000000
    -0.000466    4.446000    0.000000
     0.008790   -0.015561    4.127961
 H   O  
   8   4
Direct
  1.025608  0.370793  0.793462
  0.873370  0.084620  0.657017
  0.536962  0.067723  0.993597
  0.538203  0.411616  0.991500
  0.712892  0.722619  0.503096
  0.368491  0.728540  0.504786
  0.211718  0.726936  1.000635
 -0.132656  0.728350  1.001933
  1.043003  0.219581  0.623514
  0.536328  0.240688  1.137739
  0.541430  0.744240  0.648168
  0.039592  0.709225  1.145163
EA869
 1.0000000000000000
     4.409000   -0.000000   -0.000000
    -0.000231    4.409000    0.000000
     0.018097   -0.033995    4.197823
 H   O  
   8   4
Direct
  0.684147  0.080324  0.657717
  0.837392  0.365467  0.517405
  0.177095  0.727717  0.526481
  0.523540  0.721445  0.523013
  0.349437  0.058807  0.017928
  0.349829  0.405698  0.016628
  0.858381  0.888377  0.041546
  0.851567  0.541459  0.032368
  0.856783  0.215569  0.685223
  0.351350  0.734136  0.667638
  0.348949  0.233678  0.160445
  0.850095  0.712457  0.179907
EA846
 1.0000000000000000
     4.421000    0.000000    0.000000
    -0.000386    4.421000    0.000000
     0.021345   -0.039992    4.173754
 H   O  
   8   4
Direct
  1.074250  0.682250 -0.035708
  0.917059  0.819158  0.262705
  1.070078  0.182797  0.457874
  0.919226  0.320965  0.759589
  0.570555  0.657376  0.458333
  0.420004  0.518863  0.757373
  0.569613  0.157939  0.955897
  0.421307  0.017878  1.255505
  0.905513  0.651499  0.110836
  0.904041  0.153180  0.608185
  0.404548  0.686776  0.609228
  0.403732  0.185587  1.107331
EA856
 1.0000000000000000
     4.423000    0.000000   -0.000000
    -0.000309    4.423000   -0.000000
     0.021475   -0.040255    4.170750
 H   O  
   8   4
Direct
  0.321459  0.109404  0.514789
 -0.024760  0.116082  0.521692
  0.476289  0.109692  0.023337
  0.822521  0.106726  0.019167
 -0.019587  0.470910  0.177872
  0.135618  0.758313  0.312160
  0.472190  0.608299  0.792651
  0.817953  0.613788  0.789809
  0.149791  0.094650  0.660721
  0.650510  0.128165  0.164006
  0.145452  0.611303  0.137403
  0.644648  0.609542  0.647462
EA345
 1.0000000000000000
     4.446000    0.000000   -0.000000
    -0.000466    4.446000    0.000000
     0.008790   -0.015561    4.127961
 H   O  
   8   4
Direct
  0.992689  0.413083  0.694086
  0.847281  0.123928  0.556282
  0.512287  0.106356  0.893510
  0.512834  0.450223  0.891332
  0.688554  0.761966  0.402859
  0.344174  0.767370  0.404589
  0.187191  0.766767  0.900669
 -0.157171  0.769002  0.901945
  1.015457  0.261212  0.525433
  0.510184  0.279354  1.037634
  0.517082  0.782771  0.548035
  0.015009  0.750917  1.045420
EA283
 1.0000000000000000
     4.433000    0.000000    0.000000
    -0.001006    4.433000   -0.000000
     0.018488   -0.032621    4.153831
 H   O  
   8   4
Direct
  0.360290  0.268377  0.257916
  0.504453  0.112303  0.549964
  0.726595  0.623755  0.257746
  1.016185  0.767147  0.396661
  0.866826  0.264302  0.753411
  1.004799  0.110371  1.050007
  0.226559  0.624467  0.758017
  0.516467  0.767259  0.896892
  0.336307  0.097697  0.400887
  0.879660  0.597416  0.422172
  0.838286  0.096150  0.898847
  0.378885  0.598501  0.923303
EA379
 1.0000000000000000
     4.446000    0.000000   -0.000000
    -0.000466    4.446000    0.000000
     0.008790   -0.015561    4.127961
 H   O  
   8   4
Direct
  0.993858  0.364611  0.802458
  0.843542  0.075433  0.670230
  0.508191  0.053566  1.004805
  0.509026  0.397435  1.002469
  0.685195  0.709881  0.514275
  0.340762  0.714676  0.516107
  0.183741  0.714812  1.011576
 -0.160627  0.717072  1.013221
  1.012562  0.210909  0.635160
  0.506478  0.226610  1.148832
  0.513708  0.730494  0.659458
  0.011702  0.699451  1.156551
EA316
 1.0000000000000000
     4.446000    0.000000   -0.000000
    -0.000466    4.446000    0.000000
     0.008790   -0.015561    4.127961
 H   O  
   8   4
Direct
  1.010644  0.398006  0.758256
  0.857789  0.118074  0.608184
  0.520973  0.104804  0.943561
  0.522032  0.448652  0.941692
  0.696600  0.759974  0.452846
  0.352357  0.766715  0.454258
  0.195646  0.764115  0.952140
 -0.148710  0.764957  0.953162
  1.027186  0.254418  0.580580
  0.520379  0.277685  1.087901
  0.525142  0.780636  0.598043
  0.023476  0.746115  1.096644
EA3
 1.0000000000000000
     4.869000   -0.000000   -0.000000
     0.000000    4.869000   -0.000000
     0.000000    0.000000    3.443000
 H   O  
   8   4
Direct
 -0.155494  0.309199  0.464247
  0.031499  0.152597  0.748532
  0.048645 -0.022920  0.245358
 -0.094169 -0.196129 -0.070964
 -0.273678  0.791606  0.430314
 -0.445861  0.939853  0.741899
  0.531784  0.115024  0.247254
  0.678498  0.290328 -0.061871
  0.020662  0.320062  0.596019
  0.069880 -0.188233  0.089618
 -0.438372  0.772779  0.587557
  0.512075  0.281085  0.093321
EA752
 1.0000000000000000
     4.423000    0.000000   -0.000000
    -0.000154    4.423000    0.000000
     0.021330   -0.040474    4.170749
 H   O  
   8   4
Direct
  0.888554  0.497772  0.463387
  0.586721  0.629953  0.589430
  0.413520  0.638527  1.079021
  0.067842  0.646698  1.070808
  0.892714  0.141311  0.082521
  0.546638  0.139395  0.085152
  0.392392  0.141539  0.582251
  0.046607  0.139453  0.588940
  0.739159  0.654100  0.422553
  0.244274  0.632800  0.931442
  0.719417  0.136221 -0.060398
  0.217501  0.149307  0.441784
EA411
 1.0000000000000000
     4.420000    0.000000   -0.000000
     0.000231    4.420000    0.000000
     0.021069   -0.040899    4.176747
 H   O  
   8   4
Direct
  0.277391  0.316425  1.022572
 -0.020968  0.458549  1.146330
  0.793056  0.966862  1.134415
  0.447072  0.962874  1.141117
  0.807380  0.463906  0.634090
  0.461436  0.468998  0.628063
  0.293792  0.965320  0.634491
 -0.052523  0.963992  0.637155
  0.131589  0.475549  0.978633
  0.617937  0.973761  0.994166
  0.637347  0.459473  0.487560
  0.120337  0.960407  0.491781
EA388
 1.0000000000000000
     4.423000   -0.000000   -0.000000
     0.007874    4.422993   -0.000000
     0.008665   -0.038170    4.171816
 H   O  
   8   4
Direct
  0.546577  0.436443  0.134328
  0.415259  0.279440  0.433034
  0.049864  0.436434  0.638282
 -0.085879  0.281871  0.936081
  0.585932  0.941260  0.635842
  0.239680  0.941148  0.638365
  1.085714  0.942522  0.135875
  0.739444  0.939894  0.139161
  0.382340  0.448301  0.289388
 -0.116522  0.449747  0.790654
  0.413471  0.943869  0.781108
  0.913488  0.945274  0.281498
EA353
 1.0000000000000000
     4.416000   -0.000000    0.000000
     0.019654    4.415956    0.000000
    -0.007156   -0.040424    4.183799
 H   O  
   8   4
Direct
  0.332711  0.953573  0.561742
 -0.013704  0.955110  0.563831
  0.834116  0.947810  0.062355
  0.487846  0.953112  0.058610
  0.838176  0.453441  0.562708
  0.491956  0.450060  0.565922
  0.330917  0.592389  0.182865
  0.176262  0.305108  0.046430
  0.160569  0.964011  0.706483
  0.659579  0.938523  0.203651
  0.666543  0.451475  0.707690
  0.163202  0.454447  0.218403
EA820
 1.0000000000000000
     4.421000    0.000000   -0.000000
    -0.000386    4.421000   -0.000000
     0.021418   -0.040211    4.173751
 H   O  
   8   4
Direct
  0.807031  0.305609  0.624912
  0.943132  0.143599  0.917110
  0.445762  0.149588  0.113787
  0.293073  0.290512  0.413649
  0.454535  0.646116  0.621118
  0.294620  0.792396  0.913534
  0.613899  0.623219  0.130335
  0.959854  0.628559  0.124893
  0.776997  0.133776  0.765641
  0.274320  0.126249  0.258342
  0.286681  0.618466  0.769609
  0.788180  0.636232  0.271372
EA393
 1.0000000000000000
     4.434000   -0.000000   -0.000000
     0.019192    4.433958   -0.000000
    -0.012096   -0.029137    4.149880
 H   O  
   8   4
Direct
  0.044002  0.530924  0.618542
  0.189007  0.673958  0.318557
  0.543944  1.354652  0.606381
  0.544046  1.009266  0.605599
  0.536319  0.509354  0.107997
  0.543891  0.854444  0.109724
  0.191803  0.025062  0.971132
 -0.094170  0.164657  1.124794
  0.022404  0.697283  0.468741
  0.560312  1.181331  0.462164
  0.519413  0.682313 -0.034231
  0.053805  0.195774  0.955771
EA602
 1.0000000000000000
     4.802000    0.000000    0.000000
     2.170872    4.283284    0.000000
     0.460335   -2.667079    3.966609
 H   O  
   8   4
Direct
  0.414771 -0.094589  0.458564
  0.442923  0.198403  0.439011
  0.199204  0.360967  0.181062
  0.187809  0.686066  0.185283
 -0.061394 -0.132701 -0.050593
 -0.057558  0.180704 -0.061556
  0.689201  0.368028  0.695698
  0.697601  0.682543  0.689707
  0.526672  0.034624  0.518173
  0.265479  0.536215  0.278176
  0.025815  0.024321  0.025223
  0.776487  0.524309  0.775913
EA810
 1.0000000000000000
     4.423000    0.000000   -0.000000
    -0.000154    4.423000   -0.000000
     0.021480   -0.040629    4.171747
 H   O  
   8   4
Direct
  1.060776 -0.020333  0.440596
  0.897653  0.119274  0.735075
  0.548033  0.478218  0.732605
  0.396572  0.624642  0.439265
  0.547390 -0.022848  0.231178
  0.398234  0.124586 -0.062938
  1.051919  0.478023 -0.056597
  0.897052  0.623452  0.239661
  1.070682  0.146445  0.593675
  0.566444  0.646084  0.584639
  0.568168  0.144263  0.082595
  1.068760  0.645171  0.095361
EA619
 1.0000000000000000
     4.422000   -0.000000   -0.000000
    -0.000232    4.422000   -0.000000
     0.021850   -0.041221    4.172739
 H   O  
   8   4
Direct
  0.121195  0.177163 -0.129665
  0.260719  0.335844  0.166156
  0.614095  0.180307  0.370410
  0.760402  0.334037  0.665433
  0.759643  0.831915 -0.125683
  0.615422  0.679473  0.169724
  0.258371  0.834080  0.371897
  0.118380  0.676619  0.666491
  0.095772  0.350060  0.013601
  0.593409  0.352153  0.515860
  0.592183  0.849117  0.025418
  0.091840  0.847468  0.524494
EA595
 1.0000000000000000
     4.419000   -0.000000   -0.000000
     0.000000    4.419000   -0.000000
     0.022751   -0.043459    4.177712
 H   O  
   8   4
Direct
  0.720054  0.654034  0.067636
  0.717294  0.308321  0.067564
  0.051652  0.633132  0.698314
  0.205298  0.347423  0.555276
  0.043876 -0.007367  0.078169
  0.390066 -0.007097  0.077303
  0.544875 -0.014880  0.578037
  0.890914 -0.005290  0.576669
  0.717260  0.482699  0.211444
  0.224391  0.499003  0.724319
  0.216587  0.003322  0.221474
  0.718285 -0.024045  0.720486
EA625
 1.0000000000000000
     4.425000    0.000000   -0.000000
    -0.000541    4.425000   -0.000000
     0.021460   -0.039497    4.167758
 H   O  
   8   4
Direct
 -0.025060  0.714667  0.468559
  0.104592  0.549214  0.762474
  0.621544  0.552138 -0.022224
  0.476596  0.707594  0.273232
  0.133835  0.377335  1.265778
  0.272789  0.214546  0.971504
  0.477262  0.375974  0.600397
  0.763922  0.220932  0.464776
  0.146922  0.711640  0.612846
  0.644400  0.723570  0.123341
  0.098404  0.212959  1.114298
  0.615800  0.209407  0.637627
EA798
 1.0000000000000000
     4.423000   -0.000000    0.000000
    -0.000386    4.423000    0.000000
     0.021694   -0.040619    4.170746
 H   O  
   8   4
Direct
  0.185127  0.149695 -0.149186
  0.344531  0.290279  0.143546
  0.833439  0.506940  0.859153
  0.686744  0.798195  0.994259
  0.832354  0.008856  0.359124
  0.681135  0.301130  0.486925
  0.184899  0.491725  0.514545
  0.335283  0.779085  0.653614
  0.353475  0.119456 -0.004493
  0.857357  0.662808  1.022814
  0.851093  0.166373  0.522069
  0.353572  0.629395  0.482327
EA413
 1.0000000000000000
     4.420000    0.000000   -0.000000
     0.000231    4.420000    0.000000
     0.021069   -0.040899    4.176747
 H   O  
   8   4
Direct
  0.303811  0.440308  1.044760
 -0.042047  0.435250  1.053495
  0.803050  0.784050  0.917026
  0.515328  0.916033  1.077691
  0.804609  0.442578  0.547041
  0.458399  0.441772  0.552912
  0.145006  1.097531  0.565351
  0.000517  0.956585  0.263279
  0.128140  0.441580  0.905128
  0.665441  0.955784  0.912276
  0.629995  0.441511  0.406053
  0.166196  0.930719  0.413099
EA347
 1.0000000000000000
     4.415000    0.000000    0.000000
     0.059717    4.414596    0.000000
    -0.056660   -0.055899    4.188244
 H   O  
   8   4
Direct
  0.910511  0.855579  0.542506
  0.761570  1.149963  0.674110
  0.921900  0.334803  0.063464
  0.922299  0.681026  0.062071
  0.415773 -0.149084  0.349084
  0.257073 -0.005319  0.056336
  0.407925  0.346635  0.842528
  0.261308  0.492865  0.543892
  0.922796  1.002787  0.717085
  0.920134  0.510329  0.206026
  0.427752  0.019601  0.202596
  0.434938  0.506897  0.688425
EA281
 1.0000000000000000
     4.415000    0.000000    0.000000
     0.059717    4.414596    0.000000
    -0.056660   -0.055899    4.188244
 H   O  
   8   4
Direct
  0.963393  0.822717  0.598794
  0.813959  1.121536  0.718384
  0.967671  0.306106  0.115014
  0.968444  0.652294  0.114117
  0.463902 -0.179403  0.397085
  0.307087 -0.033012  0.104987
  0.455031  0.315854  0.889436
  0.307776  0.463635  0.591998
  0.972295  0.973650  0.769840
  0.965009  0.481470  0.257776
  0.477590 -0.010080  0.251693
  0.481878  0.476701  0.735966
EA61
 1.0000000000000000
     4.341000   -0.000000   -0.000000
     0.147334    4.338499    0.000000
     0.171790   -0.153253    4.334891
 H   O  
   8   4
Direct
  0.288397  0.813830  0.493352
 -0.016557  0.967938  0.622169
  0.792118  0.473568  0.648077
  0.498571  0.319759  0.771536
  0.788273  0.814494 -0.007378
  0.482443  0.966245  0.121885
  1.293813  0.470373  0.149745
  0.998275  0.318893  0.271337
  0.129250  0.798705  0.655107
  0.652560  0.308988  0.602579
  0.629456  0.798000  0.154561
  1.152386  0.307935  0.102508
EA679
 1.0000000000000000
     4.422000   -0.000000   -0.000000
    -0.000232    4.422000   -0.000000
     0.021850   -0.041221    4.172739
 H   O  
   8   4
Direct
  0.211823  0.301240  0.334096
  0.074718  0.592671  0.482139
  0.564102  0.310129  0.671312
  0.712900  0.450506  0.971507
  0.731722 -0.038714  0.464459
  0.385708 -0.047034  0.466640
  0.231632 -0.047245  0.964049
 -0.114574 -0.044904  0.962766
  0.045174  0.443328  0.312445
  0.545020  0.476001  0.824709
  0.557948 -0.024061  0.323125
  0.059585 -0.059733  0.819775
EA743
 1.0000000000000000
     4.418000   -0.000000   -0.000000
    -0.000308    4.418000    0.000000
     0.020651   -0.038819    4.180769
 H   O  
   8   4
Direct
  0.179121  0.531380  0.666557
  0.338800  0.666784  0.963201
  0.836831  0.671948  0.165075
  0.688546  0.521983  0.459513
  0.838624  0.169029  0.671319
  0.682907  0.025093  0.964729
  0.185121  0.025385  0.174385
  0.337974  0.169695  0.470454
  0.167312  0.696088  0.821955
  0.666031  0.689226  0.311535
  0.666752  0.192014  0.815448
  0.167617  0.192519  0.326323
EA707
 1.0000000000000000
     4.418000   -0.000000   -0.000000
    -0.000308    4.418000    0.000000
     0.020651   -0.038819    4.180769
 H   O  
   8   4
Direct
  0.502659  0.173407  0.264614
  0.656993  0.035900 -0.035003
  0.501453  0.674267  0.763076
  0.655108  0.539996  0.461163
 -0.004428  0.212984  0.763345
 -0.005077 -0.133518  0.754957
  0.155009  0.679279  0.126822
  0.019884  0.387960  0.271595
  0.490025  0.005026  0.113736
  0.488342  0.507982  0.609753
 -0.003158  0.041781  0.615792
 -0.014888  0.540141  0.108772
EA344
 1.0000000000000000
     4.594000   -0.000000    0.000000
     0.036161    4.593858   -0.000000
    -0.030446   -0.030208    3.867762
 H   O  
   8   4
Direct
  0.792931  0.840568  0.567473
  0.934271  0.551797  0.690831
  0.765648  0.353211  0.080098
  0.766460  0.019547  0.077338
  0.437774  0.705338  0.079418
  0.272619  0.857151  0.376761
  0.420595  0.209453  0.569180
  0.266859  0.358310  0.876407
  0.771531  0.684353  0.733571
  0.762133  0.186481  0.232848
  0.268728  0.686700  0.226819
  0.247850  0.198873  0.711909
EA318
 1.0000000000000000
     4.594000   -0.000000    0.000000
     0.036161    4.593858   -0.000000
    -0.030446   -0.030208    3.867762
 H   O  
   8   4
Direct
  0.777800  0.808484  0.607392
  0.928448  0.523069  0.726258
  0.761358  0.319444  0.118115
  0.761058 -0.014150  0.114823
  0.430619  0.675369  0.118418
  0.268313  0.829419  0.416219
  0.419002  0.181461  0.607707
  0.264706  0.331901  0.913639
  0.762282  0.650557  0.772026
  0.759539  0.152575  0.270709
  0.261436  0.659258  0.265990
  0.245995  0.171716  0.750108
EA637
 1.0000000000000000
     4.425000    0.000000   -0.000000
    -0.000541    4.425000   -0.000000
     0.021460   -0.039497    4.167758
 H   O  
   8   4
Direct
 -0.045955  0.691331  0.499027
  0.096594  0.529788  0.787902
  0.609104  0.538730  0.000009
  0.460783  0.691345  0.295452
  0.124773  0.360347  1.287491
  0.265730  0.199285  0.993186
  0.468760  0.361866  0.619931
  0.756219  0.206567  0.485955
  0.130966  0.692540  0.636669
  0.629326  0.709623  0.146766
  0.091916  0.194844  1.136719
  0.608070  0.196251  0.658933
EA511
 1.0000000000000000
     4.420000    0.000000   -0.000000
     0.000231    4.420000    0.000000
     0.021069   -0.040899    4.176747
 H   O  
   8   4
Direct
  0.229584  0.439292  1.162184
 -0.055796  0.574655  1.005910
  0.784345  0.922172  1.146369
  0.438477  0.915427  1.140728
  0.760236  0.409790  0.633191
  0.414262  0.419714  0.643275
  0.284772  0.918539  0.643177
 -0.061531  0.914473  0.640675
  0.087067  0.407779  0.987909
  0.614230  0.913338  0.999530
  0.584364  0.424436  0.495123
  0.113021  0.920244  0.498030
EA626
 1.0000000000000000
     4.366000    0.000000   -0.000000
    -0.000076    4.366000   -0.000000
     0.008520   -0.016068    4.281961
 H   O  
   8   4
Direct
  0.282906  0.864633 -0.022996
  0.148253  1.028174  0.267264
  0.780855  0.869293  0.480916
  0.646910  0.999035  0.788012
 -0.021364  0.503766  0.628631
  0.109671  0.208872  0.774915
  0.481646  0.359040  0.273269
  0.626912  0.499272 -0.022303
  0.111110  0.860586  0.122011
  0.627265  0.829945  0.640935
  0.147459  0.358872  0.611475
  0.649965  0.333398  0.126505
EA512
 1.0000000000000000
     4.428000   -0.000000    0.000000
     0.018316    4.427962    0.000000
    -0.004649   -0.041313    4.161792
 H   O  
   8   4
Direct
  0.900074  0.870081  0.473410
  1.039694  0.723834  0.170183
  0.723829  0.071618  0.818631
  0.856363  0.355807  0.658438
  0.377516  0.565828  0.693395
  0.376382  0.911187  0.684874
  0.383375  0.065958  0.190345
  0.381962  0.411558  0.187164
  0.874626  0.702981  0.322461
  0.895829  0.207776  0.824755
  0.383423  0.742891  0.833468
  0.380864  0.241020  0.333135
EA716
 1.0000000000000000
     4.424000    0.000000    0.000000
    -0.000463    4.424000    0.000000
     0.021538   -0.040017    4.168752
 H   O  
   8   4
Direct
  0.607707  0.948468  0.663855
  0.320191  0.818810  0.503709
  0.458828  0.444010  0.320378
  0.598499  0.288458  0.022384
  0.953395  0.626983  0.021133
  0.806150  0.776977  0.318303
  0.800082  0.447004  0.650973
  1.087617  0.294672  0.513553
  0.472243  0.775235  0.664542
  0.427825  0.278204  0.169687
  0.973572  0.797709  0.168250
  0.938026  0.279440  0.684575
EA485
 1.0000000000000000
     4.422000    0.000000   -0.000000
     0.003936    4.421998    0.000000
     0.016460   -0.042257    4.172754
 H   O  
   8   4
Direct
  0.914226  0.432262  0.422876
  0.756805  0.572086  0.720647
  0.255609  0.571571 -0.075104
  0.406195  0.425271  0.219556
  0.903332  0.924503  0.227874
  0.760019  1.077917 -0.066476
  0.259599  0.076674  0.432175
  0.409071 -0.072351  0.725081
  0.927655  0.598515  0.576271
  0.426537  0.591388  0.069597
  0.926776  1.094780  0.084209
  0.428438  0.097153  0.579531
EA738
 1.0000000000000000
     4.424000    0.000000    0.000000
    -0.000463    4.424000    0.000000
     0.021538   -0.040017    4.168752
 H   O  
   8   4
Direct
  0.653892  0.962132  0.670596
  0.362460  0.837377  0.513588
  0.497422  0.461532  0.330697
  0.637281  0.306086  0.032749
  0.994567  0.643950  0.030634
  0.847467  0.793701  0.327879
  0.838787  0.462861  0.663323
  1.126480  0.312971  0.523552
  0.514172  0.792357  0.674384
  0.466379  0.295958  0.179751
  1.014917  0.814502  0.177912
  0.977932  0.296028  0.695314
EA797
 1.0000000000000000
     4.423000   -0.000000    0.000000
    -0.000386    4.423000    0.000000
     0.021694   -0.040619    4.170746
 H   O  
   8   4
Direct
  0.184472  0.173316 -0.128113
  0.342301  0.314298  0.165520
  0.680769  0.682432  1.166190
  0.826583  0.848019  0.879785
  0.822600  0.036295  0.367990
  0.680949  0.326884  0.513310
  0.176710  0.520707  0.539182
  0.336729  0.805741  0.672176
  0.353790  0.144904  0.015825
  0.854285  0.677750  1.022536
  0.847149  0.185255  0.539513
  0.347327  0.654815  0.501281
EA262
 1.0000000000000000
     4.440000   -0.000000   -0.000000
     0.000000    4.440000   -0.000000
     0.000000    0.000000    4.141000
 H   O  
   8   4
Direct
  0.830691  0.948630  0.964528
  0.968915  0.787442  0.669830
  0.332981  0.943566  0.179974
  0.468937  0.787111  0.478749
  0.977786  0.451196  0.320542
  0.977418  0.107191  0.330648
  0.477544  0.451967  0.829964
  0.476979  0.107998  0.818326
  0.800750  0.778789  0.819770
  0.301054  0.777036  0.328568
  0.842498  0.279170  0.318423
  0.342203  0.279933  0.831807
EA121
 1.0000000000000000
     4.463000   -0.000000   -0.000000
     0.000000    4.463000   -0.000000
     0.000000    0.000000    4.098000
 H   O  
   8   4
Direct
 -0.075430  0.553026 -0.124819
  0.079937  0.405571  0.171174
  0.431570  0.053428  0.873789
  0.582137 -0.095825  1.171706
 -0.068425  0.053224  0.375763
  0.081195 -0.097647  0.673202
  0.430749  0.553606  0.373525
  0.579895  0.403792  0.671846
 -0.089924  0.384267  0.024376
  0.413327 -0.114961  1.023114
 -0.087473 -0.115660  0.524262
  0.411440  0.385279  0.522717
EA34
 1.0000000000000000
     5.184000   -0.000000   -0.000000
     0.000000    5.184000   -0.000000
     0.000000    0.000000    3.037000
 H   O  
   8   4
Direct
  0.226455  0.298981  0.150002
  0.239610  0.149441 -0.288627
  0.875785  0.348555  0.184181
  0.729863  0.187707  0.526919
  0.276894  0.657943  0.523808
  0.134006  0.833435  0.199671
  0.633493  0.831173 -0.301705
  0.774459  1.004331  0.029450
  0.215787  0.321074 -0.166963
  0.717867  0.346212  0.356997
  0.294583  0.818660  0.362904
  0.793995  0.846035 -0.138508
EA837
 1.0000000000000000
     4.406000   -0.000000   -0.000000
    -0.000308    4.406000    0.000000
     0.017536   -0.032796    4.203835
 H   O  
   8   4
Direct
  0.716372  0.157290  0.796948
  1.063282  0.162792  0.797333
  0.881810  0.839225  0.276877
  0.887491  0.492564  0.282848
  0.228617  0.665491  1.079011
  0.385642  0.805261  0.786002
  0.226926  0.009474  0.413144
  0.382320  0.296813  0.280223
  0.888958  0.162263  0.939721
  0.892308  0.669512  0.422257
  0.398114  0.636434  0.933268
  0.392913  0.150368  0.452230
EA389
 1.0000000000000000
     4.571000    0.000000   -0.000000
     0.039251    4.570831   -0.000000
    -0.033558   -0.033271    3.907714
 H   O  
   8   4
Direct
  0.342001  0.466619  0.206915
  0.181976  0.183176  0.096442
  0.349977  0.641757  0.701614
  0.199249  0.811493  0.409451
  0.854745  0.484875  0.396342
  1.003854  0.322738  0.695463
  0.699245  0.823499  0.912866
  1.034428  0.822640  0.908104
  0.345736  0.308214  0.038912
  0.370849  0.812081  0.557376
  0.833696  0.316843  0.544822
  0.869327  0.830529  1.063342
EA533
 1.0000000000000000
     4.419000    0.000000    0.000000
    -0.000154    4.419000    0.000000
     0.023340   -0.044125    4.178702
 H   O  
   8   4
Direct
 -0.002845  0.719496  0.856645
  0.147199  0.864853  0.561368
 -0.003137  0.225258  0.356130
  0.150039  0.364699  0.059765
  0.494147  0.374505  0.712931
  0.634411  0.085098  0.853990
  0.494092  0.874998  0.212585
  0.633610  0.585369  0.354031
  0.166262  0.697089  0.709057
  0.166075  0.198305  0.209482
  0.663441  0.235806  0.688549
  0.663020  0.735771  0.188345
EA865
 1.0000000000000000
     4.423000    0.000000   -0.000000
    -0.000309    4.423000   -0.000000
     0.021475   -0.040255    4.170750
 H   O  
   8   4
Direct
  0.334649  0.130275  0.623009
 -0.011881  0.126668  0.620313
  0.502332  0.110634  0.109889
  0.798799 -0.029116  0.234235
 -0.021048  0.483759  0.275354
  0.133580  0.770845  0.412099
  0.466569  0.620195  0.888528
  0.812344  0.628752  0.881638
  0.160052  0.106488  0.762967
  0.659087  0.137999  0.270743
  0.135711  0.631872  0.229816
  0.637873  0.615507  0.741755
EA854
 1.0000000000000000
     4.406000    0.000000    0.000000
    -0.000231    4.406000    0.000000
     0.017390   -0.032650    4.203837
 H   O  
   8   4
Direct
  0.557872  1.045320  0.637673
  0.691642  0.888892  0.337752
  0.197483  0.386105  0.326163
  0.030995  0.528653  0.615805
  0.204126  0.890902  0.130316
  0.057599  1.037367 -0.164411
  0.849287  0.527632  1.137412
  0.557906  0.391194  0.990451
  0.726399  1.054514  0.487959
  0.201602  0.558630  0.471577
  0.227000  1.057735 -0.018036
  0.699183  0.559974  0.971963
EA416
 1.0000000000000000
     4.425000   -0.000000    0.000000
     0.021779    4.424946   -0.000000
    -0.010909   -0.039001    4.166803
 H   O  
   8   4
Direct
  0.187041  0.018692  0.963876
  0.036970  0.313537  1.085530
  0.194136  0.521717  0.460779
  0.039621  0.812152  0.588688
  0.548679  0.536799  0.798048
  0.685819  0.831512  0.933702
  0.536728  0.362499  0.303429
  0.526754  0.017477  0.317219
  0.019004  0.155491  0.923026
  0.022926  0.655760  0.424362
  0.520584  0.690492  0.963829
  0.534185  0.196296  0.454162
EA579
 1.0000000000000000
     4.421000   -0.000000   -0.000000
     0.001466    4.421000    0.000000
     0.019533   -0.041404    4.175749
 H   O  
   8   4
Direct
  0.674903  0.107919  0.561199
  0.648191  0.453364  0.567632
  0.671268  0.616841  0.073769
  0.824671  0.769036 -0.215270
  0.014656  0.613441  0.412268
  0.146346  0.916863  0.296030
  0.168174  0.434621  0.812209
  0.161003  0.088631  0.802937
  0.674636  0.282839  0.421416
  0.648145  0.782220 -0.076300
  0.171759  0.761660  0.457626
  0.154344  0.259498  0.950805
EA753
 1.0000000000000000
     4.418000    0.000000   -0.000000
    -0.000386    4.418000    0.000000
     0.020364   -0.037952    4.181778
 H   O  
   8   4
Direct
  1.029159  0.220876  0.239578
  0.890342  0.365220 -0.060723
  0.365438  0.565967 -0.053136
  0.223299  0.860400  0.080683
  0.739182  0.738601  0.441821
  1.028822  0.876116  0.589773
  0.528022  0.219163  0.737094
  0.388674  0.388841  0.451529
  0.871309  0.192539  0.080593
  0.393635  0.723163  0.108759
  0.889389  0.706244  0.607320
  0.353204  0.221196  0.596214
EA278
 1.0000000000000000
     4.433000    0.000000    0.000000
    -0.001006    4.433000   -0.000000
     0.018488   -0.032621    4.153831
 H   O  
   8   4
Direct
  0.420603  0.306701  0.254548
  0.555541  0.156050  0.554889
  1.064627  0.820527  0.413881
  1.065807  0.475720  0.409687
  0.914253  0.312076  0.763132
  1.054533  0.153724  1.055926
  0.277749  0.673161  0.759976
  0.569030  0.807473  0.905157
  0.388347  0.142672  0.404478
  0.930242  0.647760  0.422471
  0.887369  0.141112  0.905436
  0.429909  0.638910  0.923529
EA635
 1.0000000000000000
     4.422000   -0.000000   -0.000000
    -0.000232    4.422000   -0.000000
     0.021850   -0.041221    4.172739
 H   O  
   8   4
Direct
  0.208462  0.204150 -0.083261
  0.349884  0.349820  0.218691
  0.707486  0.177991  0.433609
  0.849739  0.345249  0.722846
  0.705203  0.994682 -0.084343
  0.858936  0.710487  0.055538
  0.352440  0.848575  0.423885
  0.205094  0.700860  0.719578
  0.187874  0.374743  0.064058
  0.677559  0.348689  0.578766
  0.688933  0.847475  0.087041
  0.184368  0.869288  0.573469
EA9
 1.0000000000000000
     5.184000   -0.000000   -0.000000
     0.000000    5.184000   -0.000000
     0.000000    0.000000    3.037000
 H   O  
   8   4
Direct
  0.209856  0.318810  0.189198
  0.233111  0.157426 -0.236394
  0.861970  0.344517  0.223822
  0.726062  0.178806  0.571908
  0.287918  0.665577  0.560944
  0.146504  0.840873  0.235822
  0.645253  0.824968 -0.261872
  0.782807  0.995879  0.075674
  0.202894  0.331681 -0.129698
  0.705643  0.335831  0.400244
  0.305669  0.827454  0.403306
  0.804730  0.839087 -0.095625
EA550
 1.0000000000000000
     4.420000   -0.000000    0.000000
     0.000077    4.420000    0.000000
     0.021876   -0.042002    4.177732
 H   O  
   8   4
Direct
 -0.107306  0.806849  0.286321
  0.042843  0.662612  0.580438
  0.379322  0.822123  0.802021
  0.725485  0.828423  0.799474
  1.035134  0.172805  1.089675
  0.877924  0.457388  0.956323
  0.370750  0.318585  0.571877
  0.716657  0.308197  0.564087
  0.053486  0.837793  0.441522
  0.553199  0.802632  0.942320
  1.043086  0.316538  0.914602
  0.541698  0.320517  0.424830
EA788
 1.0000000000000000
     4.423000    0.000000    0.000000
    -0.000154    4.423000    0.000000
     0.021553   -0.040775    4.171745
 H   O  
   8   4
Direct
 -0.143289  0.185845  0.789257
  0.012448 -0.100804  0.650460
  0.354353  0.022097  0.167963
  0.514559 -0.120886  0.457997
  0.368123  0.529616  0.948139
  0.510907  0.377652  0.648828
  0.016732  0.385977  0.160935
 -0.129386  0.541091  0.455384
  0.020564  0.043739  0.827583
  0.526502  0.047134  0.309688
  0.536917  0.544876  0.798694
  0.036738  0.559772  0.303489
EA745
 1.0000000000000000
     4.423000   -0.000000    0.000000
    -0.000386    4.423000    0.000000
     0.021694   -0.040546    4.170747
 H   O  
   8   4
Direct
  0.397746  0.620001 -0.053326
  0.249236  0.482047  0.247434
  0.932032  0.337411  0.756845
  1.073532  0.627321  0.615811
  0.739316 -0.028951  0.236149
  1.085299 -0.025432  0.236792
  0.573242 -0.022046  0.749574
  0.425512  0.127673  0.456594
  0.422294  0.461012  0.104194
  0.907417  0.485467  0.587767
  0.913042 -0.007228  0.094060
  0.408267 -0.045634  0.597634
EA830
 1.0000000000000000
     4.423000    0.000000    0.000000
    -0.000232    4.423000    0.000000
     0.021626   -0.040702    4.171745
 H   O  
   8   4
Direct
 -0.019757  0.620702  0.434800
 -0.150988  0.924557  0.554830
  0.483475  0.121938  0.379365
  0.189446  0.266069  0.254259
  0.338234  0.607186  0.769688
  0.340480  0.952870  0.769197
 -0.311690  0.277245  0.756127
 -0.165754  0.428734  1.050902
 -0.176270  0.769589  0.390226
  0.337504  0.281924  0.425459
  0.344247  0.781274  0.912981
 -0.142635  0.258898  0.903102
EA125
 1.0000000000000000
     4.463000   -0.000000   -0.000000
     0.000000    4.463000   -0.000000
     0.000000    0.000000    4.098000
 H   O  
   8   4
Direct
 -0.073347  0.565774 -0.119772
  0.065514  0.409007  0.179751
  0.433262  0.062649  0.880548
  0.601409 -0.075356  1.174584
  0.071289  0.074301  0.529761
  0.072500 -0.268212  0.522905
  0.426016  0.561940  0.377400
  0.565087  0.412312  0.680676
 -0.100719  0.396765  0.026935
  0.429509 -0.105214  1.032044
 -0.062793 -0.097413  0.528003
  0.396610  0.398535  0.530960
EA25
 1.0000000000000000
     4.869000    0.000000    0.000000
     2.434500    4.216678   -0.000000
     2.434500    1.405559    3.975522
 H   O  
   8   4
Direct
 -0.121261  0.201258  0.006933
 -0.052210 -0.120098 -0.037281
  0.451880  0.700120  0.452945
  0.459280  0.379953  0.454421
  0.193668  0.453097  0.211690
  0.198929  0.137159  0.206614
  0.700285  0.950892  0.707992
  0.701628  0.634261  0.708476
  0.010237 -0.036965  0.059936
  0.535233  0.456502  0.545765
  0.282795  0.208930  0.294936
  0.779290  0.707319  0.801316
EA478
 1.0000000000000000
     4.421000   -0.000000    0.000000
     0.003472    4.420999    0.000000
     0.016177   -0.040599    4.174771
 H   O  
   8   4
Direct
  0.129440  0.437630 -0.079872
 -0.153697  0.589385  0.067352
  0.640050  0.431881  0.430618
  0.504346  0.589079  0.729330
  0.660728  1.088999  0.085202
  0.369291  0.959510  0.236488
  0.861694 -0.086640  0.418784
  1.147117 -0.232127  0.563821
 -0.015818  0.420390  0.094550
  0.467725  0.426659  0.575979
  0.521674  0.919072  0.072553
  1.016459 -0.055571  0.580818
EA207
 1.0000000000000000
     4.338000   -0.000000   -0.000000
     0.000000    4.338000   -0.000000
     0.000000    0.000000    4.338000
 H   O  
   8   4
Direct
 -0.018229  0.606532  1.000450
  0.118315  0.741320  0.700117
  0.288001  0.100853  0.213164
  0.143873  0.240684  0.507062
  0.653912 -0.052990  0.706305
  0.789240  0.240607  0.855180
  0.479084  0.603191  0.502157
  0.617573  0.765085  0.216062
  0.138820  0.570530  0.844019
  0.120557  0.073495  0.359748
  0.620267  0.093949  0.872796
  0.653321  0.597653  0.360800
EA787
 1.0000000000000000
     4.421000    0.000000    0.000000
    -0.000386    4.421000    0.000000
     0.021345   -0.039992    4.173754
 H   O  
   8   4
Direct
  0.503723  0.087362  0.034814
  0.362362 -0.194938  0.191281
  0.501383  0.429228  0.675308
  0.346899  0.293119  0.375795
  1.003242 -0.210739  0.524240
  0.855152  0.072727  0.378385
  0.998905  0.443220  0.183578
  0.846448  0.585221 -0.110273
  0.328627 -0.045415  0.026065
  0.339233  0.464809  0.523214
  0.833016 -0.073128  0.550185
  0.834459  0.412955  0.032654
EA677
 1.0000000000000000
     4.424000    0.000000   -0.000000
    -0.000463    4.424000   -0.000000
     0.021907   -0.040608    4.169745
 H   O  
   8   4
Direct
  0.903246  0.868950  0.548167
  0.744209  0.729293  0.253786
  0.904448  0.376747  1.046230
  0.743896  0.233982  0.753974
  0.252903  0.229039  0.552855
  0.394085  0.528856  0.435180
  0.256500  1.034688  0.051230
  0.405912  0.744009 -0.084192
  0.726172  0.889958  0.413191
  0.734484  0.404633  0.902665
  0.241038  0.377915  0.383125
  0.238904  0.883121 -0.117964
EA213
 1.0000000000000000
     5.642000   -0.000000   -0.000000
     0.000000    2.960000   -0.000000
     0.000000    0.000000    4.886000
 H   O  
   8   4
Direct
  0.731339  0.148983  0.362437
  0.801938  0.550064  0.180996
  0.224603  0.668985  0.330050
  0.303557  0.257342  0.498852
  1.146170  0.796573  0.834967
  0.984821  0.379439  0.831587
  0.645274  0.937067  0.835343
  0.485810  1.356946  0.840608
  0.720834  0.475238  0.350381
  0.221422  0.341575  0.331392
  0.980895  0.706608  0.832810
  0.480409  1.029942  0.839733
EA490
 1.0000000000000000
     4.416000    0.000000   -0.000000
    -0.001619    4.416000    0.000000
     0.031196   -0.055001    4.185522
 H   O  
   8   4
Direct
  0.833662  0.493841  0.002759
  0.487531  0.508195  0.010293
  0.645364 -0.144211  0.215555
  0.496682  0.002112  0.514219
 -0.012911 -0.139164  0.879016
  0.145744  0.146200  1.015035
 -0.008775  0.356557  0.386947
  0.146485  0.647153  0.514134
  0.659475  0.520093 -0.134743
  0.665332  0.024055  0.366084
  0.160910 -0.007325  0.847114
  0.161458  0.491234  0.348640
EA838
 1.0000000000000000
     4.401000   -0.000000   -0.000000
    -0.000230    4.401000   -0.000000
     0.016181   -0.030374    4.213859
 H   O  
   8   4
Direct
  0.505608  0.325745  0.202447
  0.374344  0.450991  0.516079
  0.680149  1.110847  0.854061
  0.536758  0.823553  0.705724
 -0.125323  0.471839  1.014160
  0.014512  0.596504  0.705195
  0.022556  1.075402  0.180442
  0.027997  1.075758  0.542387
  0.534962  0.484585  0.360960
  0.508147  0.973287  0.874104
  0.029425  0.429178  0.854434
  0.014297  0.939135  0.361131
EA304
 1.0000000000000000
     4.420000    0.000000    0.000000
    -0.001234    4.420000    0.000000
     0.023037   -0.040672    4.176738
 H   O  
   8   4
Direct
  0.124207  0.838003  0.833259
 -0.029071  0.988969  1.127029
  0.620015  0.840328  0.327331
  0.469669  0.987814  0.624896
  0.120308  0.340665  0.329614
 -0.030257  0.489606  0.626141
  0.619989  0.340400  0.827154
  0.468984  0.487784  1.124404
  0.140787  1.009285  0.979850
  0.639003  1.008955  0.477125
  0.139492  0.509709  0.478792
  0.638552  0.509065  0.976960
EA301
 1.0000000000000000
     4.433000    0.000000    0.000000
     0.005648    4.432996    0.000000
    -0.001088   -0.013266    4.153979
 H   O  
   8   4
Direct
  0.561746  0.351897  0.409948
  0.687509  0.202002  0.101887
  0.832931  0.841920  0.906431
  0.542850  0.700071  0.766209
  0.056114  0.354794  0.903583
  0.187258  0.202559  0.599431
  0.334803  0.845038  0.405147
  0.045564  0.699045  0.267921
  0.724713  0.365255  0.253875
  0.677383  0.871870  0.744506
  0.222537  0.366152  0.751522
  0.178663  0.871571  0.243190
EA681
 1.0000000000000000
     4.185000   -0.000000   -0.000000
    -0.000145    4.152000    0.000000
     0.019994   -0.037775    4.694805
 H   O  
   8   4
Direct
 -0.001485  0.173289  0.268604
  0.146329 -0.119028  0.109600
  0.501313  0.376393  0.261309
  0.644935  0.670932  0.106289
  0.003160  0.377427  0.761650
  0.147020  0.672674  0.608086
  0.503893  0.177953  0.762527
  0.647813 -0.118853  0.607336
  0.168733  0.014608  0.279848
  0.669139  0.537720  0.274780
  0.170852  0.538769  0.776097
  0.670541  0.015797  0.776931
EA618
 1.0000000000000000
     4.377000   -0.000000    0.000000
    -0.000306    4.377000   -0.000000
     0.013681   -0.025204    4.259903
 H   O  
   8   4
Direct
  0.238324  0.085945  0.573825
  0.383926 -0.058467  0.276789
  0.234436  0.590822  1.054982
  0.397115  0.451062  0.765696
 -0.259966  0.095535  0.772717
 -0.104796 -0.048144  1.061419
 -0.259607  0.751170  0.438419
 -0.105533  0.460543  0.569040
  0.412303  0.102658  0.432303
  0.406072  0.621338  0.913334
 -0.090437  0.122749  0.916852
 -0.097364  0.604470  0.395680
EA774
 1.0000000000000000
     4.424000   -0.000000   -0.000000
    -0.000386    4.424000    0.000000
     0.021616   -0.040245    4.169750
 H   O  
   8   4
Direct
  0.177937  0.687537 -0.125220
  0.034398  0.533240  0.169452
  0.018501  0.051540  0.340035
  0.020613  0.063296  0.705211
  0.367226  1.182073  1.177452
  0.519388  1.030369  0.883556
  0.529635  0.521816  0.391017
  0.532616  0.867636  0.392993
  0.008420  0.701672  0.023381
  0.029896  0.193540  0.518596
  0.542518  1.195657  1.037078
  0.514668  0.695318  0.535022
EA660
 1.0000000000000000
     4.429000    0.000000    0.000000
     0.001391    4.429000    0.000000
     0.017212   -0.036680    4.160803
 H   O  
   8   4
Direct
  0.196327  0.718635  0.513620
  0.190743  0.372848  0.515042
  0.194998  0.215420  0.008658
  0.188813 -0.129822  0.018215
  0.849590  0.876944  0.666209
  0.696621  1.167992  0.793405
  0.851621  0.377383  0.166483
  0.697005  0.667584  0.293806
  0.186932  0.547364  0.658511
  0.189037  0.047401  0.157846
  0.680762  1.012350  0.628156
  0.681793  0.511659  0.128773
EA557
 1.0000000000000000
     4.420000    0.000000   -0.000000
     0.000231    4.420000    0.000000
     0.021069   -0.040899    4.176747
 H   O  
   8   4
Direct
  0.785953  0.527634  0.314212
  1.070235  0.687556  0.181277
  0.427337  0.528904  0.974260
  0.572005  0.688699  0.684576
  0.923983  0.028437  0.696777
  1.068555  0.189272  0.987367
  0.275382  0.037939  0.359562
  0.565794  0.188375  0.490777
  0.924492  0.694881  0.356439
  0.399553  0.697817  0.830043
  0.896516  0.198393  0.843208
  0.422053  0.197150  0.315316
EA855
 1.0000000000000000
     4.421000    0.000000   -0.000000
    -0.000386    4.421000    0.000000
     0.021350   -0.040075    4.174753
 H   O  
   8   4
Direct
  0.039088  0.163055  0.671883
  0.188837  0.310619  0.967741
  0.186582  0.799828  0.169398
  0.038902  0.662637  0.471073
  0.683564  0.656366  0.825046
  0.548992  0.947087  0.975995
  0.665275  0.306044  0.496584
  0.672350  0.312048  0.131926
  0.022651  0.334980  0.817842
  0.023440  0.830735  0.323489
  0.512935  0.794490  0.811433
  0.532790  0.296200  0.311336
EA870
 1.0000000000000000
     4.404000    0.000000    0.000000
    -0.000231    4.404000    0.000000
     0.016896   -0.031734    4.208846
 H   O  
   8   4
Direct
 -0.129468  0.601077  0.823163
  0.155413  0.754380  0.967458
  0.682929  0.104176  0.856993
  0.336097  0.103539  0.846297
  1.003403  0.249341  0.334228
  0.861013 -0.047361  0.461004
  0.516051  0.772983  0.336597
  0.524421  0.426180  0.339966
  0.017068  0.583829  0.994723
  0.504615  0.093047  0.993558
  1.015378  0.104550  0.507161
  0.533418  0.602468  0.480312
EA687
 1.0000000000000000
     4.422000   -0.000000   -0.000000
    -0.000232    4.422000   -0.000000
     0.021850   -0.041221    4.172739
 H   O  
   8   4
Direct
  0.757385  0.218191  0.962990
  0.474167  0.357837  0.806129
  0.634189  0.851596  0.452840
  0.796619  0.710697  0.158787
  0.120329  0.536306  0.955825
 -0.030254  0.675147  0.658518
  0.111253  0.036765  0.146912
 -0.051927  0.178828  0.440275
  0.614915  0.188794  0.788249
  0.630200  0.678215  0.308094
  0.137363  0.702523  0.806408
  0.116758  0.208777  0.293563
EA831
 1.0000000000000000
     4.423000    0.000000    0.000000
    -0.000232    4.423000    0.000000
     0.021626   -0.040702    4.171745
 H   O  
   8   4
Direct
  0.099078  0.811827  0.458772
 -0.246263  0.823439  0.474996
  0.586233  0.164194  0.301796
  0.293364  0.310817  0.175757
  0.429725  0.654854  0.682308
  0.427939  1.000967  0.684230
 -0.217001  0.335912  0.688581
 -0.071462  0.485231  0.985706
 -0.078810  0.825459  0.323297
  0.445261  0.329292  0.342729
  0.424126  0.828264  0.826420
 -0.049472  0.315760  0.837160
EA718
 1.0000000000000000
     4.423000    0.000000    0.000000
    -0.000309    4.423000   -0.000000
     0.021844   -0.041066    4.171741
 H   O  
   8   4
Direct
  0.524527  0.510364  0.179270
  0.367425  0.370134 -0.115663
  1.005054  0.547724  0.365520
  0.719127  0.683510  0.527052
  1.046952  1.025719  0.895234
  0.701297  1.018236  0.903339
  0.379626  0.878300  0.374742
  0.536837  1.164344  0.510591
  0.355847  0.539712  0.034086
  0.853928  0.509335  0.530385
  0.876341  1.027995  1.042792
  0.376996  1.019377  0.554963
EA608
 1.0000000000000000
     4.421000   -0.000000   -0.000000
     0.001466    4.421000    0.000000
     0.019533   -0.041404    4.175749
 H   O  
   8   4
Direct
  0.660642  0.117594  0.552378
  0.661177  0.463664  0.552838
  0.680230  0.626868  0.059283
  0.826597  0.788578 -0.228456
  0.150096  0.651679  0.286823
  0.020726  0.958497  0.401073
  0.311925  0.456836  0.904006
  0.180488  0.152673  0.785500
  0.679768  0.289560  0.410140
  0.647961  0.790136 -0.091659
  0.177479  0.810661  0.446563
  0.151998  0.311173  0.945824
EA605
 1.0000000000000000
     4.338000   -0.000000   -0.000000
     0.000000    4.338000   -0.000000
     0.000000    0.000000    4.338000
 H   O  
   8   4
Direct
 -0.181484 -0.038078  0.011885
  0.170446 -0.054054 -0.001719
 -0.153035  0.596537  0.376727
 -0.014405  0.306758  0.530723
  0.334443  0.449559  0.012659
  0.686671  0.449563  0.011016
  0.353635  0.103970  0.372614
  0.642691 -0.034057  0.528748
 -0.010515 -0.032643 -0.132984
  0.014222  0.447811  0.358719
  0.509796  0.451657 -0.126814
  0.499864 -0.065810  0.358459
EA157
 1.0000000000000000
     4.338000   -0.000000    0.000000
    -0.004467    4.337998   -0.000000
     0.088618   -0.156217    4.336282
 H   O  
   8   4
Direct
  0.147899  0.655205  0.272997
  0.152438  0.303722  0.284792
  0.515500  0.625729  0.926657
  0.673921  0.331050  0.789796
  0.669017 -0.030826  0.130393
  0.530611 -0.189073  0.415554
  0.173999  0.127912  0.758333
  0.018061 -0.169397  0.630289
  0.011788  0.478333  0.288115
  0.508747  0.476289  0.754100
  0.493589 -0.025144  0.273309
  0.004567 -0.013773  0.797218
EA456
 1.0000000000000000
     4.421000    0.000000    0.000000
     0.011111    4.420986   -0.000000
     0.008163   -0.046302    4.175735
 H   O  
   8   4
Direct
  0.222050  0.599847  0.550357
  0.075925  0.447684  0.253558
  0.405383  1.077750  0.894525
  0.059302  1.082122  0.894873
  0.576802  0.437835  1.056808
  0.717899  0.589242  0.760620
  0.579711 -0.244284  0.395618
  0.581787  0.101486  0.404337
  0.247141  0.432714  0.398810
  0.230602  0.943870  0.891533
  0.741865  0.418608  0.903904
  0.716592 -0.072907  0.407336
EA77
 1.0000000000000000
     5.140000    0.000000   -0.000000
    -0.106209    5.138903   -0.000000
     0.000000   -0.063863    3.089340
 H   O  
   8   4
Direct
  0.844381  0.345149  0.161786
  1.094054  0.203859  0.256241
  0.590914  0.873959  0.440756
  0.832644  0.708249  0.501115
  0.093004  0.869988 -0.076981
  0.328018  0.700223  0.022894
  0.334019  0.366311  0.668135
  0.569432  0.198826  0.760207
  1.002135  0.361499  0.329038
  0.751584  0.866930  0.605613
  0.249540  0.864946  0.100213
  0.499263  0.369400  0.820483
EA452
 1.0000000000000000
     4.421000   -0.000000    0.000000
     0.003472    4.420999    0.000000
     0.016177   -0.040599    4.174771
 H   O  
   8   4
Direct
  0.149604  0.393006 -0.027810
 -0.134296  0.548964  0.115903
  0.666205  0.397929  0.491120
  0.515521  0.544866  0.788132
  0.682036  0.906807 -0.007182
  0.518006  1.045177  0.286872
  0.839306 -0.119690  0.498829
  1.185255 -0.114785  0.495634
  0.005056  0.381551  0.148066
  0.492828  0.380371  0.633856
  0.516357  0.871682  0.141836
  1.012681 -0.105197  0.640695
EA477
 1.0000000000000000
     4.421000   -0.000000    0.000000
     0.003472    4.420999    0.000000
     0.016177   -0.040599    4.174771
 H   O  
   8   4
Direct
  0.160668  0.333558  0.046662
 -0.129741  0.485459  0.180281
  0.669839  0.332332  0.555809
  0.518001  0.479444  0.851791
  0.683869  0.840457  0.050809
  0.523528  0.982296  0.345539
  0.842319 -0.183293  0.558321
  1.188204 -0.179386  0.555657
  0.010378  0.319473  0.216689
  0.496710  0.313931  0.698650
  0.519274  0.807836  0.201865
  1.015496 -0.170568  0.700647
EA397
 1.0000000000000000
     4.419000    0.000000   -0.000000
     0.005167    4.418997   -0.000000
     0.013858   -0.040715    4.178779
 H   O  
   8   4
Direct
  0.077449  0.288066  0.805705
  0.077803 -0.058184  0.819492
  0.074051  0.785346  0.310229
  0.079693  0.439243  0.316761
  0.581680  0.981346  0.034922
  0.736869  1.272209  0.160283
  0.582199  0.481032  0.535540
  0.736321  0.772525  0.660683
  0.071696  0.108671  0.669111
  0.071996  0.608645  0.169733
  0.567381  1.137192  0.200147
  0.566719  0.637504  0.699997
EA817
 1.0000000000000000
     4.423000    0.000000    0.000000
    -0.000232    4.423000    0.000000
     0.021626   -0.040702    4.171745
 H   O  
   8   4
Direct
  0.064946  0.695734  0.450513
 -0.223185  0.847768  0.588158
  0.571020  0.203721  0.403706
  0.274980  0.344668  0.278729
  0.426580  0.685291  0.796476
  0.426217  1.031429  0.798311
 -0.225792  0.358017  0.780632
 -0.080624  0.516645  1.072173
 -0.078962  0.858291  0.411770
  0.420884  0.359308  0.452049
  0.444069  0.858816  0.939417
 -0.056279  0.344483  0.927673
EA620
 1.0000000000000000
     4.432000    0.000000    0.000000
     0.001547    4.432000   -0.000000
     0.015740   -0.034242    4.155829
 H   O  
   8   4
Direct
  0.301483  0.653594  0.144106
  0.011881  0.518803 -0.005266
  0.651414  0.671284  0.790746
  0.650811  0.325608  0.788696
  0.149226  0.132837  0.842167
  0.148830  0.134072  0.475634
  0.648918  1.169554  0.287881
  0.654910  0.824186  0.289487
  0.160116  0.486536  0.163168
  0.671568  0.498299  0.646905
  0.145250 -0.002712  0.657178
  0.631021  0.994813  0.145821
EA261
 1.0000000000000000
     4.379000   -0.000000    0.000000
    -0.002446    4.378999    0.000000
     0.046870   -0.082718    4.254938
 H   O  
   8   4
Direct
  0.851848  0.609649  0.731431
  0.975624  0.766517  1.032903
  0.344735  0.621280  0.241732
  0.483084  0.767167  0.541839
  0.345310  0.269053  0.872513
  0.638188  0.120452  0.734400
 -0.161615  0.267156  0.373731
  0.133725  0.126701  0.231755
  1.016138  0.600232  0.883337
  0.512407  0.601794  0.388497
  0.483394  0.097831  0.897875
 -0.022525  0.095639  0.392118
EA724
 1.0000000000000000
     4.422000   -0.000000    0.000000
     0.000463    4.422000    0.000000
     0.020981   -0.041380    4.173742
 H   O  
   8   4
Direct
  0.418545  0.802821  0.763427
  0.706581  0.949174  0.906203
  0.734489  0.454758  0.392981
  0.388574  0.461344  0.395695
  1.235859  0.459971  0.896399
  0.889898  0.465074  0.891648
  0.066656  0.815333  0.410018
  0.221211  1.098192  0.268092
  0.557805  0.971270  0.737125
  0.560652  0.441972  0.250966
  1.065709  0.481162  0.751424
  0.048288  0.963997  0.240948
EA486
 1.0000000000000000
     4.419000    0.000000   -0.000000
     0.007018    4.418994    0.000000
     0.015609   -0.049111    4.178682
 H   O  
   8   4
Direct
  0.548799  0.900615  0.186027
  0.260254  0.750470  0.048188
  0.388884  0.560371  0.679576
  0.248668  0.266361  0.541239
  0.902197  0.266898  0.180680
  0.752668  0.402027 -0.119289
 -0.102325  0.764776  0.377637
 -0.259451  0.913009  0.670711
  0.404224  0.912662  0.011141
  0.422701  0.399923  0.522257
  0.917409  0.433347  0.031477
 -0.092076  0.938606  0.521833
EA764
 1.0000000000000000
     4.624000   -0.000000   -0.000000
     0.000000    4.624000   -0.000000
     0.000000    0.000000    3.817000
 H   O  
   8   4
Direct
  0.627344  0.528619  0.634502
  0.453699  0.645725  0.321932
  0.101798 -0.037756  0.647754
 -0.054133  0.118961  0.346904
  0.119536  0.467942  0.153932
 -0.037998  0.618741 -0.150448
  0.607227 -0.011039  0.132371
  0.456723  0.146463 -0.174052
  0.458930  0.487899  0.489477
 -0.065114 -0.051532  0.494610
 -0.049307  0.452386  0.004003
  0.439330 -0.020263 -0.020475
EA791
 1.0000000000000000
     4.338000   -0.000000   -0.000000
     0.000000    4.338000   -0.000000
     0.000000    0.000000    4.338000
 H   O  
   8   4
Direct
  0.013759  0.779704  0.867589
  0.146206  0.479609  1.004667
  0.972706  0.273239  0.674306
  0.846169 -0.020347  0.517212
  0.329457  0.632429  0.361485
  0.477400  0.482566  0.649242
  0.640467  0.981450  0.014181
  0.352150  1.123124  0.167150
 -0.023791  0.624559  1.024983
  1.020483  0.120746  0.516440
  0.500393  0.653421  0.505735
  0.493030  1.149886 -0.005437
EA428
 1.0000000000000000
     4.554000    0.000000   -0.000000
     0.029090    4.553907   -0.000000
    -0.021845   -0.031186    3.935816
 H   O  
   8   4
Direct
  0.834585  0.320117  0.573467
  1.113130  0.472275  0.714129
  0.340686  0.327259  0.387935
  0.617254  0.466148  0.230649
  0.459255  0.958968  0.562011
  0.593101  0.800606  0.870728
  0.955635  0.960091  0.069291
  1.090491  0.801304  0.376462
  0.993546  0.297573  0.737359
  0.492972  0.293416  0.219482
  0.426165  0.796943  0.716131
  0.924664  0.795745  0.220570
EA692
 1.0000000000000000
     4.422000   -0.000000   -0.000000
     0.001080    4.422000    0.000000
     0.020107   -0.041456    4.173746
 H   O  
   8   4
Direct
  0.160812  0.883185  0.283867
  0.162849  0.537347  0.291307
  0.160728  0.366013  0.801815
  0.012647  0.073276  0.671777
  0.516292  0.892782  0.657663
  0.527209  0.547124  0.638475
  0.657805  0.381375  1.006717
  0.513769  0.221775  1.296878
  0.153713  0.706080  0.144281
  0.179796  0.212836  0.633958
  0.656723  0.723728  0.665270
  0.681888  0.208526  1.146752
EA547
 1.0000000000000000
     4.419000    0.000000    0.000000
    -0.000231    4.419000   -0.000000
     0.023704   -0.044636    4.178694
 H   O  
   8   4
Direct
  0.718970  0.421077  0.486643
  0.876437  0.287757  0.782188
  0.383512  0.428927  0.129938
  0.037984  0.430048  0.137547
  0.383448  0.928028  0.631297
  0.037884  0.928886  0.638622
  0.718670  0.921632 -0.012776
  0.876377  0.788807  0.282906
  0.707896  0.254974  0.637437
  0.210251  0.293562  0.128213
  0.210273  0.792554  0.629411
  0.707829  0.755699  0.138231
EA392
 1.0000000000000000
     4.455000    0.000000    0.000000
     0.001866    4.455000    0.000000
     0.006099   -0.016577    4.110962
 H   O  
   8   4
Direct
  0.582245  0.770429  0.179342
  0.239148  0.756390  0.170902
  0.749131  0.409331  0.294321
  0.897991  0.120047  0.160897
  0.769087  0.932768  0.784267
  1.059419  0.781082  0.656423
  0.408642  0.415780  0.659185
  0.259464  0.275787  0.961675
  0.408055  0.750082  0.320019
  0.925449  0.281682  0.317646
  0.909574  0.770778  0.828697
  0.425095  0.248863  0.809660
EA384
 1.0000000000000000
     4.419000    0.000000    0.000000
     0.004319    4.418998   -0.000000
     0.015098   -0.040859    4.178773
 H   O  
   8   4
Direct
 -0.011140  0.301656  0.242683
  0.152163  0.162767  0.532166
  0.659995  0.803709  0.377439
  0.314465  0.805238  0.384787
  0.659948  0.303410  0.878060
  0.314416  0.304906  0.885742
 -0.005607  0.796336  0.735187
  0.152574  0.662716  1.030550
 -0.016949  0.130781  0.387755
  0.486721  0.668579  0.375218
  0.486681  0.168245  0.876563
 -0.016716  0.630564  0.886421
EA672
 1.0000000000000000
     3.436000   -0.000000   -0.000000
     0.000000    3.257000   -0.000000
     0.000000    0.000000    7.294000
 H   O  
   8   4
Direct
  0.326240  0.449947  0.128198
  0.091670  0.049663  0.148022
  0.908028  0.884165  0.397504
  0.579777  0.564102  0.398041
  0.928936  0.859059  0.897247
  0.603393  0.536556  0.897771
  0.416576  0.374801  0.647714
  0.088221  0.054855  0.648253
  0.266527  0.193438  0.065616
  0.738511  0.729546  0.316454
  0.758422  0.705999  0.816241
  0.247454  0.219784  0.566646
EA586
 1.0000000000000000
     4.425000    0.000000    0.000000
     0.012820    4.424981    0.000000
     0.003345   -0.041527    4.165792
 H   O  
   8   4
Direct
  0.119486  0.629430  0.145308
  0.120806  0.283849  0.146371
 -0.014523  0.938052  0.657233
  0.273763  0.789735  0.516517
  0.628035  0.612846  0.655957
  0.769773  0.467533  0.353049
  0.622758  0.094248 -0.185501
  0.626021  0.088689  0.180157
  0.108541  0.455008  0.002619
  0.136315  0.959659  0.489113
  0.602210  0.447634  0.502769
  0.638977 -0.044334 -0.006733
EA359
 1.0000000000000000
     4.415000   -0.000000   -0.000000
     0.057482    4.414626   -0.000000
    -0.053736   -0.055380    4.188289
 H   O  
   8   4
Direct
  0.599701  0.499049  1.120424
  0.756708  0.358066  0.826051
  0.256584  0.507683  0.470076
  0.127706  0.210516  0.328256
  0.084763  1.027242 -0.162229
 -0.056420  0.863813  0.123447
  0.592443  0.982038  0.284826
  0.586850  0.967611  0.648050
  0.588769  0.329700  0.970024
  0.092826  0.363937  0.493282
  0.116941  0.858795 -0.017589
  0.599701  0.838464  0.458606
EA813
 1.0000000000000000
     4.395000   -0.000000   -0.000000
    -0.000230    4.395000    0.000000
     0.014892   -0.027940    4.223881
 H   O  
   8   4
Direct
  0.351799  0.863315  0.200036
  0.207710  1.013640 -0.092880
  0.839694 -0.129707  0.710917
  0.550781  0.024073  0.577275
  0.861076  0.509757  0.055385
  0.513707  0.509971  0.045377
  0.203939  0.511056  0.710273
  0.361157  0.375315  0.413669
  0.184298  0.843556  0.051069
  0.694262 -0.140554  0.537790
  0.687151  0.373174  0.055316
  0.196543  0.340029  0.563416
EA689
 1.0000000000000000
     4.423000   -0.000000    0.000000
    -0.000386    4.423000    0.000000
     0.021694   -0.040400    4.170748
 H   O  
   8   4
Direct
  0.317635  0.135278  0.082652
  0.023286  0.279599  0.211870
  0.827597  0.126939  0.587385
  0.683125  0.292179  0.876831
  0.851979  0.763415  0.263360
  0.691659  0.477758  0.394105
  0.026445  0.616600  0.876120
  0.177109  0.464115  0.582483
  0.166033  0.116833  0.251190
  0.652082  0.124935  0.728395
  0.691178  0.619539  0.216832
  0.195655  0.635863  0.728269
EA889
 1.0000000000000000
     4.338000   -0.000000   -0.000000
     0.000000    4.338000   -0.000000
     0.000000    0.000000    4.338000
 H   O  
   8   4
Direct
  0.105670  0.594393  0.698940
  0.402734  0.737299  0.833218
  0.595354  0.101661  0.667337
  0.891370  0.243275  0.530000
  0.579740  0.769873  0.320373
  0.735048  0.917550  0.035672
  0.239878  0.428961  0.323448
  0.238447  0.076885  0.326480
  0.255933  0.757627  0.664739
  0.750121  0.260078  0.703381
  0.744468  0.739454  0.171636
  0.227318  0.251542  0.187093
EA254
 1.0000000000000000
     4.433000    0.000000    0.000000
    -0.001006    4.433000   -0.000000
     0.018488   -0.032621    4.153831
 H   O  
   8   4
Direct
  0.408079  0.274319  0.266074
  0.563138  0.135122  0.562842
  0.916956  0.781121  0.274768
  1.063956  0.630121  0.569434
  0.914970  0.281153  0.773183
  1.061178  0.129970  1.067987
  0.417083  0.779185  0.773639
  0.563520  0.628940  1.069079
  0.392746  0.109224  0.418299
  0.895654  0.611845  0.420976
  0.892988  0.112091  0.919417
  0.395730  0.610012  0.919969
EA723
 1.0000000000000000
     4.422000   -0.000000   -0.000000
    -0.000232    4.422000   -0.000000
     0.021850   -0.041221    4.172739
 H   O  
   8   4
Direct
  0.191308  0.400692  0.125175
  0.040241  0.541243  0.425323
  0.688338  0.389118  0.619820
  0.546363  0.552815  0.913204
  0.704518  0.864027  0.129204
  0.540030  0.718391  0.417141
  1.022976  1.041774  0.923802
  0.867967  0.900846  0.626944
  0.021317  0.375913  0.271450
  0.517209  0.382693  0.766920
  0.532401  0.889851  0.272932
  1.035695  0.872436  0.773852
EA320
 1.0000000000000000
     4.411000    0.000000   -0.000000
    -0.000770    4.411000    0.000000
     0.014427   -0.025410    4.195898
 H   O  
   8   4
Direct
  0.552649  0.882346  0.861980
  0.408096  0.716468  1.147719
  0.900554  0.258609  0.861887
  1.044904  0.551949  0.994924
  1.055719  1.048403  0.488932
  0.898128  0.758843  0.362561
  0.405922  0.532002  0.660821
  0.551428  0.242315  0.518175
  0.376497  0.883568  1.001466
  0.877651  0.411811  1.027775
  0.885079  0.913803  0.528016
  0.384140  0.383238  0.490104
EA804
 1.0000000000000000
     4.419000    0.000000    0.000000
    -0.000309    4.419000    0.000000
     0.020568   -0.038509    4.178772
 H   O  
   8   4
Direct
  0.689268  0.664101  0.526934
  0.837678  0.530248  0.221203
  0.691436  0.165444  0.718376
  0.844716  0.020076  1.010801
  0.337364  0.664364  0.873195
  0.208452  0.370149  1.017849
  0.344767 -0.123315  0.391104
  0.195789  0.172169  0.518782
  0.671004  0.500779  0.371151
  0.674926 -0.003482  0.865393
  0.169502  0.522287  0.856609
  0.185925  0.023247  0.345867
EA822
 1.0000000000000000
     4.406000   -0.000000   -0.000000
    -0.000154    4.406000    0.000000
     0.017243   -0.032650    4.203838
 H   O  
   8   4
Direct
  0.205038  0.464797  0.026134
  0.359156  0.327989  0.321643
  0.858600  1.115990  0.325213
  0.695951  0.832457  0.190522
  0.836189  0.606724  0.830435
  0.704351  0.311106  0.686202
  0.202614  1.116960  0.688100
  0.357964  0.834547  0.829917
  0.367260  0.500296  0.178173
  0.867025  0.967123  0.153397
  0.876386  0.448852  0.672881
  0.374592  0.981361  0.658852
EA832
 1.0000000000000000
     4.406000   -0.000000   -0.000000
    -0.000154    4.406000    0.000000
     0.017243   -0.032650    4.203838
 H   O  
   8   4
Direct
  0.200102  0.535371 -0.046875
  0.351875  0.398075  0.249861
  0.852963  1.186193  0.256816
  0.690088  0.902841  0.121947
  0.831057  0.677114  0.761898
  0.698169  0.382184  0.617184
  0.196541  1.187847  0.619167
  0.352590  0.905260  0.759758
  0.361095  0.570616  0.106738
  0.861496  1.037183  0.085140
  0.870126  0.519964  0.603224
  0.368489  1.052377  0.588932
EA881
 1.0000000000000000
     4.412000    0.000000   -0.000000
    -0.000231    4.412000    0.000000
     0.018808   -0.035272    4.192809
 H   O  
   8   4
Direct
  1.143356  0.611710  0.624739
  0.859618  0.456459  0.766726
  0.507618  0.460230  0.129233
  0.641816  0.760405  0.257095
  1.139346  0.271116  0.295826
  0.853596  0.119153  0.435953
  0.485105  0.286783  0.636141
  0.346317  0.114958  0.921060
  0.993134  0.630185  0.793875
  0.478985  0.614933  0.293179
  1.000221  0.102274  0.262921
  0.524995  0.123506  0.784341
EA609
 1.0000000000000000
     4.421000   -0.000000   -0.000000
     0.001466    4.421000    0.000000
     0.019533   -0.041404    4.175749
 H   O  
   8   4
Direct
  0.704897  0.102444  0.565242
  0.696502  0.448529  0.566575
  0.708406  0.608191  0.065717
  0.855817  0.767906 -0.223079
  0.015802  0.779316  0.279215
  0.361775  0.780846  0.281670
  0.063986  0.255988  0.761162
  0.348704  0.111441  0.910498
  0.717072  0.275041  0.423069
  0.683985  0.779448 -0.076932
  0.187424  0.774700  0.424248
  0.209077  0.280624  0.934018
EA515
 1.0000000000000000
     4.421000    0.000000   -0.000000
     0.009645    4.420989    0.000000
     0.009839   -0.045574    4.175740
 H   O  
   8   4
Direct
  0.360245 -0.022567  0.332626
  0.510348  0.118048  0.632495
  0.359616  0.476036  0.838092
  0.516208  0.614414  1.135926
 -0.150702  0.486550  0.670379
 -0.143322  0.483463  0.305772
  0.865003 -0.039372 -0.164236
  1.010235  0.114981  0.131471
  0.341198  0.142923  0.486486
  0.347529  0.643822  0.990280
 -0.147102  0.621679  0.488301
  0.842787  0.132309 -0.018146
EA652
 1.0000000000000000
     4.364000    0.000000   -0.000000
    -0.000076    4.364000   -0.000000
     0.010769   -0.020417    4.284938
 H   O  
   8   4
Direct
  0.703606  0.190492  0.027098
  0.689516  0.540662  0.041092
  0.708428  0.719233  0.554733
  0.850081  1.011017  0.410572
  0.182844  0.480613  0.229363
  0.188665  0.486207  0.586002
  0.190188 -0.016858  0.728687
  0.188414 -0.013153  1.085182
  0.694621  0.370459 -0.105938
  0.683350  0.865020  0.385227
  0.187463  0.345017  0.409318
  0.188345 -0.153417  0.907760
EA297
 1.0000000000000000
     4.424000    0.000000   -0.000000
     0.029495    4.423902    0.000000
    -0.019000   -0.044498    4.170719
 H   O  
   8   4
Direct
  0.696011  0.272368  0.353928
  0.850407  0.421712  0.646971
  0.689144  0.781072  0.842716
  0.843469  0.924401  1.140321
  0.213028  0.772659  0.310310
  0.214207  0.763866  0.675203
  0.202997  0.274923  0.848166
  0.346775  0.429833  1.145028
  0.868272  0.252428  0.497765
  0.860011  0.756842  0.988376
  0.350225  0.768285  0.492981
  0.371492  0.259606  0.997956
EA610
 1.0000000000000000
     4.419000    0.000000   -0.000000
     0.000848    4.419000    0.000000
     0.023194   -0.046756    4.178674
 H   O  
   8   4
Direct
  0.515639  0.042082  0.120996
  0.661461 -0.124943  0.404617
  0.518257  0.552496  0.614889
  0.671970  0.705502  0.905462
  0.019432  0.700606  0.244050
  0.170438  0.407187  0.116865
  0.016448  0.197008  0.746757
  0.170894 -0.094049  0.618266
  0.692107  0.042649  0.258757
  0.690725  0.535624  0.756525
  0.186046  0.562097  0.282981
  0.185586  0.061201  0.784142
EA853
 1.0000000000000000
     4.420000    0.000000   -0.000000
     0.000231    4.420000    0.000000
     0.021069   -0.040899    4.176747
 H   O  
   8   4
Direct
  0.689012  0.809411  1.059821
  0.534896  1.098350  0.933573
  0.668880  0.318819  0.565997
  0.527032  0.608926  0.427023
  0.196320  0.075216  0.608507
  0.194922  0.066364  0.243639
  0.036615  0.450989  1.074017
  0.185438  0.594061  0.777079
  0.706480  0.964572  0.897168
  0.696842  0.470649  0.401226
  0.193400 -0.065729  0.428640
  0.205151  0.426919  0.925836
EA288
 1.0000000000000000
     4.422000    0.000000   -0.000000
     0.034730    4.421864    0.000000
    -0.025497   -0.046497    4.173663
 H   O  
   8   4
Direct
  0.549274  0.512710  0.669125
  0.694363  0.218848  0.799126
  0.539216  1.032219  0.189635
  0.534122  0.686540  0.182659
  0.900215  0.529000  0.305861
  1.190412  0.380979  0.167945
  1.050126  1.030682  0.971977
  1.200736  0.885233  0.673516
  0.528744  0.361411  0.835351
  0.545934  0.857776  0.329822
  1.037147  0.357220  0.331507
  1.025834  0.870055  0.813042
EA84
 1.0000000000000000
     5.059000   -0.000000   -0.000000
     0.000000    5.059000   -0.000000
     0.000000    0.000000    3.189000
 H   O  
   8   4
Direct
  0.285028  0.680776  0.920986
  0.072373  0.894447  0.912735
  0.594281  0.831726  0.415451
  0.781916  0.690156  0.109024
  0.980223  0.238572 -0.043999
  0.847081  0.212826  0.391380
  0.355699  0.199747  0.592282
  0.541891  0.334038  0.909006
  0.122856  0.729905  0.777236
  0.619931  0.665413  0.267754
  1.017709  0.234580  0.256297
  0.518133  0.172156  0.748693
EA875
 1.0000000000000000
     4.420000   -0.000000    0.000000
    -0.000309    4.420000    0.000000
     0.020636   -0.038718    4.177770
 H   O  
   8   4
Direct
  0.169970  0.378045  1.091826
  0.327512  0.235880  0.796450
  0.345021  0.581186  0.462180
  0.187135  0.868501  0.595500
  0.501789  0.199011  0.297931
  0.666109  0.062781  0.588826
  0.530997  0.705012  1.083060
  0.818912  0.548682  0.949458
  0.160510  0.206099  0.945541
  0.181820  0.722698  0.419541
  0.666627  0.236096  0.447079
  0.686045  0.721697  0.918030
EA527
 1.0000000000000000
     4.420000    0.000000   -0.000000
     0.000926    4.420000    0.000000
     0.019975   -0.040829    4.176753
 H   O  
   8   4
Direct
  0.931213  0.388851 -0.121812
  1.057954  0.531820  0.187574
  0.456097  0.369551  0.351534
  0.449245  0.375112  0.716681
  0.404115  0.721437  1.024611
  0.689415  0.857297  0.867323
  0.902100  1.041133  0.536320
  1.188750  0.906059  0.690171
  1.095061  0.371238  0.031724
  0.588311  0.386359  0.536419
  0.537542  0.896274  1.031870
  1.036559  0.866905  0.527287
EA328
 1.0000000000000000
     4.433000    0.000000   -0.000000
     0.004797    4.432997   -0.000000
     0.001378   -0.015734    4.153970
 H   O  
   8   4
Direct
  0.417617  0.081088  0.180210
  0.419939  0.425560  0.178840
  0.553445  0.764928  0.687287
  0.267174  0.922265  0.557043
  0.910947  0.078396  0.677092
  0.918352  0.423029  0.678816
  1.054550  0.763254  0.185953
  0.768506  0.921639  0.056860
  0.429996  0.252258  0.035630
  0.399968  0.750641  0.520616
  0.927418  0.250609  0.534300
  0.900297  0.749312  0.020058
EA422
 1.0000000000000000
     4.440000   -0.000000    0.000000
    -0.000465    4.440000   -0.000000
     0.011775   -0.021237    4.138929
 H   O  
   8   4
Direct
  0.630621  0.583900  0.028803
  0.491318  0.296387  0.175462
  0.153423  0.299576  0.534035
  0.147474  0.643965  0.527613
  0.153907 -0.200882  0.034152
  0.147136  0.143549  0.028650
  0.640977  1.091088  0.534267
  0.489781  0.803545  0.667458
  0.659529  0.435127  0.197616
  0.154399  0.474826  0.676036
  0.153405 -0.026023  0.176687
  0.661169  0.936779  0.698746
EA802
 1.0000000000000000
     4.424000   -0.000000   -0.000000
    -0.000386    4.424000    0.000000
     0.021616   -0.040245    4.169750
 H   O  
   8   4
Direct
  0.170359  0.771553 -0.125594
  0.301527  0.482567  0.024289
  0.115573  0.274452  0.378776
 -0.013701 -0.017571  0.526134
  0.476153  1.133026  1.179796
  0.630717  0.995712  0.879250
  0.642559  0.486668  0.388173
  0.640833  0.831834  0.379799
  0.131231  0.621273  0.038415
  0.155865  0.121769  0.539554
  0.644078  1.162630  1.032123
  0.643237  0.663668  0.528069
EA834
 1.0000000000000000
     4.395000   -0.000000   -0.000000
    -0.000230    4.395000    0.000000
     0.014892   -0.027940    4.223881
 H   O  
   8   4
Direct
  0.358677  0.868571  0.191619
  0.201351  1.006035 -0.101729
  0.843106 -0.284169  0.582176
  0.701280  0.015326  0.710640
  0.862928  0.498171  0.053975
  0.515415  0.495558  0.040046
  0.197406  0.509762  0.704412
  0.346568  0.365247  0.408172
  0.191153  0.836356  0.045075
  0.688117 -0.131735  0.537599
  0.689700  0.360242  0.055516
  0.175697  0.343536  0.553704
EA420
 1.0000000000000000
     4.459000    0.000000    0.000000
     0.032530    4.458881   -0.000000
    -0.026580   -0.036203    4.104754
 H   O  
   8   4
Direct
  0.171099  0.929583  0.014258
  0.308648  0.637886  0.154222
  0.159340  0.122525  0.507495
  0.297206  0.423464  0.622266
  0.653168  0.135173  0.009096
  0.809759  0.275666  0.310611
  0.652386  0.630063  0.812004
  0.799522  0.775894  0.514008
  0.140594  0.776867  0.178431
  0.144444  0.276585  0.675732
  0.643785  0.305604  0.158717
  0.629418  0.794616  0.660108
EA357
 1.0000000000000000
     4.444000    0.000000    0.000000
    -0.000465    4.444000   -0.000000
     0.009159   -0.016153    4.131958
 H   O  
   8   4
Direct
  0.912038  0.325265  0.297437
  0.747716  0.459176  0.595047
  0.767904  0.952886  1.110962
  0.914260  0.815201  0.805522
  0.277618  0.638302  0.957915
  0.265196  0.294486  0.944495
  0.258897  0.828368  0.432282
  0.404697  1.119002  0.299024
  0.917540  0.492498  0.450107
  0.937716  0.975503  0.964130
  0.406618  0.461175  0.947203
  0.432405  0.960382  0.457982
EA812
 1.0000000000000000
     4.416000   -0.000000    0.000000
    -0.000385    4.416000    0.000000
     0.019863   -0.037021    4.183789
 H   O  
   8   4
Direct
  0.288338 -0.021242  0.191903
  0.429840  0.271229  0.057126
  0.789935  0.628781  0.058723
  0.938804  0.487091  0.355100
  0.434506  0.767707  0.555096
  0.281517  0.482553  0.695007
  0.817268  0.137661  0.890545
  0.807113  0.136601  0.526623
  0.460791  0.113944  0.214984
  0.958409  0.653307  0.205433
  0.452590  0.618682  0.724075
  0.947719  0.153789  0.703409
EA315
 1.0000000000000000
     4.446000    0.000000   -0.000000
    -0.000466    4.446000    0.000000
     0.008790   -0.015561    4.127961
 H   O  
   8   4
Direct
  1.015082  0.244411  0.685252
  1.012321  0.238219  0.316123
  0.512276  0.237983  1.185687
  0.512220  0.234594  0.816579
  0.683608  0.874087  0.355430
  0.339171  0.874456  0.355820
  0.183629  0.875637  0.855151
 -0.160749  0.875934  0.855497
  1.013370  0.377140  0.498570
  0.512685  0.372210  1.000185
  0.511284  0.877318  0.501077
  0.011325  0.881325  1.000707
EA628
 1.0000000000000000
     4.412000    0.000000    0.000000
     0.210218    4.406989   -0.000000
     0.065358   -0.248927    4.195113
 H   O  
   8   4
Direct
  0.439458  0.067138  0.060059
  0.275208  0.207988  0.361826
  0.944429  0.713495  0.187451
  0.788732  0.427199  0.056912
  0.943042  0.214407  0.686631
  0.788521 -0.073100  0.557512
  0.435032  0.569340  0.554332
  0.276432  0.709033  0.859991
  0.268698  0.040791  0.202679
  0.776299  0.585098  0.227277
  0.776983  0.084102  0.728629
  0.266582  0.542886  0.700005
EA777
 1.0000000000000000
     4.423000   -0.000000    0.000000
    -0.000386    4.423000    0.000000
     0.021694   -0.040619    4.170746
 H   O  
   8   4
Direct
  0.184967  0.162819 -0.143283
  0.340345  0.306018  0.150906
  0.687017  0.510235  0.972781
  0.829181  0.809803  0.854486
  0.824756  0.007355  0.361326
  0.680975  0.301113  0.496126
  0.176366  0.502275  0.533417
  0.335364  0.789903  0.663102
  0.358866  0.141531 -0.003923
  0.840553  0.660959  1.024439
  0.847889  0.161263  0.527624
  0.347656  0.635726  0.495477
EA526
 1.0000000000000000
     4.421000   -0.000000    0.000000
     0.003472    4.420999    0.000000
     0.016177   -0.040599    4.174771
 H   O  
   8   4
Direct
  0.561109  0.323967  0.467628
  0.544319  0.669479  0.459957
  0.033941  0.353127  0.671972
 -0.111845  0.495086  0.974018
  0.908851  0.839788  0.299823
  1.194225  0.997171  0.165029
  0.370323  0.853909  0.814281
  0.716060  0.864023  0.823299
  0.563458  0.493290  0.320374
  0.049743  0.524214  0.819089
  1.040841  1.013929  0.332163
  0.538837  0.994831  0.817213
EA491
 1.0000000000000000
     4.419000    0.000000    0.000000
     0.001620    4.419000   -0.000000
     0.021735   -0.045958    4.178691
 H   O  
   8   4
Direct
  0.980744  0.780409  1.091296
  0.832631  0.928970  0.796573
  0.980418  0.280277  0.574870
  0.818324  0.419262  0.284786
  0.475199  0.770923  0.287453
  0.322921  0.920582  0.581798
  0.158388  0.119439 -0.034866
  0.305590  0.415349  0.087332
  0.809499  0.764039  0.947198
  0.807571  0.252406  0.434636
  0.305888  0.749472  0.434804
  0.316300  0.265626 -0.084685
EA70
 1.0000000000000000
     4.336000   -0.000000   -0.000000
     0.000000    4.336000   -0.000000
     0.000000    0.000000    4.340000
 H   O  
   8   4
Direct
  0.351833  0.698158  0.452774
  0.354488  0.689603  0.100548
  0.853856  0.690621  0.953798
  0.853600  0.690192  0.601369
  0.128656  0.189487  0.453279
  0.128621  0.189753  0.100891
  0.628616  0.189875  0.953329
  0.628697  0.189845  0.600944
  0.492472  0.692384  0.277723
  0.992998  0.690260  0.777473
 -0.010652  0.189971  0.277095
  0.489364  0.190485  0.777101
EA287
 1.0000000000000000
     4.446000    0.000000   -0.000000
    -0.000466    4.446000    0.000000
     0.008790   -0.015561    4.127961
 H   O  
   8   4
Direct
  1.011753  0.251886  0.669307
  1.005518  0.251311  0.300471
  0.505141  0.253580  1.172795
  0.505138  0.250015  0.803676
  0.675838  0.888777  0.342354
  0.331394  0.889057  0.342660
  0.175858  0.888554  0.841706
 -0.168543  0.889416  0.842064
  1.008014  0.387574  0.485182
  0.506094  0.387698  0.987209
  0.503495  0.892840  0.487939
  0.003565  0.892709  0.987296
EA650
 1.0000000000000000
     4.421000    0.000000    0.000000
     0.001852    4.421000   -0.000000
     0.019096   -0.041552    4.175750
 H   O  
   8   4
Direct
  0.723922  0.848492 -0.075664
  0.871865  1.136861  0.068851
  0.374009  0.656111  0.769688
  0.235608  0.505268  1.068462
  0.729600  0.482989  0.261837
  0.875071  0.325957  0.551933
  0.389627  0.128298  0.236396
  0.387096  0.133487  0.601651
  0.888382  0.991756 -0.107433
  0.404091  0.490814  0.918682
  0.900532  0.494817  0.406760
  0.380637 -0.005560  0.419893
EA513
 1.0000000000000000
     4.422000    0.000000   -0.000000
     0.003936    4.421998    0.000000
     0.016460   -0.042257    4.172754
 H   O  
   8   4
Direct
  0.983338  0.553491  0.471620
  0.693155  0.416740  0.619022
  0.164973  0.557806 -0.012208
  0.331687  0.415626  0.275247
  0.825751  0.913812  0.282569
  0.693027  1.068572 -0.016443
  0.194459  0.069317  0.480698
  0.336619 -0.080337  0.777065
  0.833160  0.585328  0.639733
  0.336419  0.586591  0.130259
  0.858383  1.080911  0.136387
  0.363435  0.085926  0.628435
EA231
 1.0000000000000000
     4.410000    0.000000    0.000000
    -0.001847    4.410000   -0.000000
     0.035453   -0.062540    4.196384
 H   O  
   8   4
Direct
  0.707923  0.383223  0.992394
  0.852069  0.540852  0.701288
  0.710670  0.889661  0.495533
  0.854502  1.041128  0.200718
  0.210755  0.890040  0.995485
  0.354244  1.042498  0.701017
  0.209789  0.389508  0.494374
  0.354279  0.542232  0.200578
  0.877754  0.370453  0.843472
  0.878759  0.872073  0.344887
  0.378871  0.873154  0.844772
  0.378123  0.372481  0.343953
EA325
 1.0000000000000000
     4.416000    0.000000    0.000000
     0.044548    4.415775    0.000000
    -0.036822   -0.052306    4.185511
 H   O  
   8   4
Direct
  0.916491  0.616337  0.703401
  0.772870  0.768742  0.407113
  0.928199  0.138778  0.237596
  0.936567  0.139907 -0.126093
  0.423296  0.123663  0.702671
  0.271480  0.267906  0.406330
  0.417856  0.619939  0.200568
  0.272889  0.771186 -0.095135
  0.940851  0.784818  0.558110
  0.932828  0.276228  0.057902
  0.440509  0.291010  0.554771
  0.441080  0.788318  0.055218
EA363
 1.0000000000000000
     4.429000   -0.000000    0.000000
     0.001855    4.429000    0.000000
     0.016275   -0.036117    4.162812
 H   O  
   8   4
Direct
  0.382219  0.938866  0.930677
  0.251570  0.770093  0.636405
  0.879506  0.928644  0.434017
  0.748903  0.773283  0.131746
  0.387948  0.596508  0.296390
  0.102160  0.447284  0.440990
  0.928723  0.432626  0.929431
  0.583314  0.423411  0.921061
  0.218145  0.944213  0.776180
  0.711900  0.937043  0.283879
  0.254296  0.423552  0.273376
  0.759361  0.439955  0.781981
EA321
 1.0000000000000000
     4.415000    0.000000    0.000000
     0.026507    4.414920    0.000000
    -0.017173   -0.040235    4.186771
 H   O  
   8   4
Direct
  0.584330  0.410558  0.173804
  0.429224  0.550900 -0.121699
  1.231605 -0.103779  0.046204
  0.945745  0.052070  0.186503
  0.581647 -0.090179  0.670543
  0.431117  0.056319  0.375198
  0.072446  0.394444  0.667425
 -0.066547  0.556892  0.375361
  0.594116  0.581674  0.029566
  1.094771  0.067575  0.016995
  0.603629  0.074516  0.519521
  0.102209  0.564702  0.525447
EA617
 1.0000000000000000
     4.419000   -0.000000    0.000000
     0.000771    4.419000   -0.000000
     0.022762   -0.045746    4.179688
 H   O  
   8   4
Direct
  0.779486  0.359450  0.639119
  0.942660  0.644047  0.511909
  0.446194  0.494315  0.132250
  0.100591  0.501500  0.131943
  0.447052 -0.006473  0.633190
  0.101435  0.000545  0.632539
  0.786293  0.860239  0.139369
  0.942748  1.146958  0.009049
  0.769583  0.512587  0.473824
  0.274019  0.486398 -0.011019
  0.274979 -0.014940  0.489796
  0.770723  1.013358 -0.025448
EA877
 1.0000000000000000
     4.422000   -0.000000   -0.000000
    -0.000077    4.422000    0.000000
     0.021345   -0.040649    4.173747
 H   O  
   8   4
Direct
  0.960683  0.545210  0.274725
  0.948417  0.890744  0.292731
  0.463218  0.844954  0.793438
  0.608931  0.554532  0.654997
  0.782577  0.196919  0.494608
  0.937701  0.060041  0.790840
  0.293521  0.045659  0.148756
  0.421998  0.340196  0.295674
  0.952641  0.723385  0.140023
  0.435996  0.688432  0.630975
  0.950512  0.227121  0.640990
  0.463186  0.184919  0.134780
EA779
 1.0000000000000000
     4.422000   -0.000000    0.000000
    -0.000232    4.422000    0.000000
     0.021709   -0.040940    4.173743
 H   O  
   8   4
Direct
  1.007516  0.636724  0.418157
  0.848306  0.486862  0.129065
  0.373754  0.643820  0.754714
  0.661349  0.489009  0.615950
  0.373512  0.145479  0.256041
  0.660951 -0.010588  0.118601
  1.009486  0.130525  0.926505
  0.846796 -0.010329  0.634537
  1.018377  0.463352  0.273469
  0.513401  0.477128  0.789265
  0.513169 -0.020865  0.292203
  1.018273 -0.038521  0.776066
EA351
 1.0000000000000000
     4.418000   -0.000000   -0.000000
     0.020434    4.417953   -0.000000
    -0.005254   -0.046240    4.180741
 H   O  
   8   4
Direct
  0.254769  0.385461  0.806136
  0.267135  0.378686  0.441420
  0.262009  0.882468  0.305126
  0.262249  0.883027 -0.059763
  0.765180  0.816550  0.758924
  0.757517  1.162629  0.751631
  0.922963  0.350964  0.129904
  0.779787  0.642784  0.271099
  0.264554  0.518764  0.622450
  0.259305  1.019701  0.124383
  0.768727  0.985551  0.612080
  0.754880  0.491505  0.102413
EA20
 1.0000000000000000
     4.338000   -0.000000   -0.000000
     0.000000    4.338000   -0.000000
     0.000000    0.000000    4.338000
 H   O  
   8   4
Direct
 -0.190732 -0.048396  0.004685
  0.161660 -0.036774  0.006160
 -0.191159  0.463274  0.505967
  0.161374  0.463307  0.505927
  0.308809  0.463292  0.006129
  0.661334  0.462978  0.005989
  0.309446 -0.037796  0.505672
  0.661968 -0.037788  0.505605
 -0.014044 -0.039666 -0.133745
 -0.014911  0.462724  0.366710
  0.485008  0.462555 -0.133173
  0.485674 -0.037935  0.366404
EA268
 1.0000000000000000
     4.637000    0.000000    0.000000
    -0.001354    4.082000    0.000000
     0.028831   -0.050876    4.312604
 H   O  
   8   4
Direct
  0.303183  0.348821  0.719084
  0.453973  0.648330  0.574801
  0.797861  0.350518  0.223180
  0.951807  0.647434  0.077327
  0.798581 -0.149316  0.723283
  0.953773  0.147105  0.577916
  0.298314 -0.150132  0.220418
  0.451686  0.147739  0.075797
  0.287421  0.504695  0.551920
  0.784296  0.505141  0.054707
  0.785962  0.005331  0.554728
  0.284739  0.004777  0.052200
EA819
 1.0000000000000000
     4.422000   -0.000000    0.000000
    -0.000232    4.422000   -0.000000
     0.021267   -0.040202    4.172752
 H   O  
   8   4
Direct
  1.088880  0.196236  0.662251
  0.743396  0.186951  0.658149
  0.248801  0.033067  1.017728
  0.594325  0.037755  1.020428
  0.434921  0.827156  0.661948
  0.577686  0.535149  0.523002
  0.753242  0.680147  1.162236
  0.910532  0.543963  0.863654
  0.917608  0.209356  0.518003
  0.419794  0.170447  1.006133
  0.408989  0.673567  0.496024
  0.923360  0.709757  1.017578
EA412
 1.0000000000000000
     4.420000    0.000000   -0.000000
     0.000231    4.420000    0.000000
     0.021069   -0.040899    4.176747
 H   O  
   8   4
Direct
  0.297826  0.558005  1.021489
 -0.030084  0.456133  1.085634
  0.801988  0.953590  1.084327
  0.455902  0.957122  1.085695
  0.803743  0.459630  0.576112
  0.457665  0.453835  0.570196
  0.302406  0.956143  0.582785
 -0.043881  0.957153  0.583391
  0.128622  0.450761  0.923366
  0.628963  0.950905  0.941018
  0.633490  0.466238  0.429926
  0.129685  0.960558  0.439106
EA880
 1.0000000000000000
     4.416000    0.000000    0.000000
    -0.000231    4.416000   -0.000000
     0.019940   -0.037688    4.184783
 H   O  
   8   4
Direct
 -0.032946  0.424966  0.296470
  0.312453  0.444214  0.303098
  0.623608  0.265142  1.089169
  0.474232  0.418920  0.798467
  0.322816  0.931882 -0.201351
 -0.023528  0.937710 -0.194964
  0.786402 -0.228000  0.423010
  0.494635 -0.084463  0.287569
  0.136553  0.435250  0.443435
  0.641923  0.438046  0.947876
  0.151367  0.926448 -0.054993
  0.648694 -0.057334  0.451082
EA714
 1.0000000000000000
     4.414000   -0.000000    0.000000
    -0.000385    4.414000    0.000000
     0.019375   -0.035969    4.188801
 H   O  
   8   4
Direct
  1.018634  0.593955  0.357140
  0.868842  0.746776  0.066954
  0.359082  0.698191  0.885405
  0.367983  0.709712  0.522005
  0.533037  0.069564  0.066227
  0.186677  0.074508  0.066492
  0.830762  0.931499  0.559164
  0.701093  1.231495  0.694985
  0.844517  0.580629  0.216131
  0.362116  0.567206  0.697389
  0.359115  0.059783  0.208672
  0.862992  1.084456  0.724325
EA732
 1.0000000000000000
     4.414000   -0.000000    0.000000
    -0.000385    4.414000    0.000000
     0.019375   -0.035969    4.188801
 H   O  
   8   4
Direct
  0.999835  0.572627  0.365514
  0.864414  0.734660  0.072815
  0.351638  0.684411  0.884166
  0.355565  0.695009  0.520613
  0.524740  0.056096  0.064967
  0.178450  0.061585  0.064714
  0.820475  0.918387  0.559640
  0.693592  1.219697  0.694896
  0.830662  0.566499  0.217573
  0.349815  0.552981  0.696518
  0.350594  0.046041  0.207072
  0.854648  1.071644  0.724032
EA221
 1.0000000000000000
     4.377000   -0.000000   -0.000000
     0.000000    4.377000   -0.000000
     0.000000    0.000000    4.261000
 H   O  
   8   4
Direct
  0.149037  0.078408  0.631171
  0.443158  0.209409  0.479884
  0.627923  0.234817 -0.004410
  0.977251  0.233533  0.002323
 -0.026013  0.721849  0.487436
 -0.168290  0.573287  0.782688
  0.453327  0.735366  0.964511
  0.457559  0.734035  1.322623
  0.301936  0.238418  0.654252
  0.799984  0.235828  0.139722
 -0.191419  0.744505  0.638661
  0.317621  0.730507  1.145511
EA228
 1.0000000000000000
     4.338000    0.000000    0.000000
    -0.004164    4.337998   -0.000000
     0.083241   -0.146766    4.336719
 H   O  
   8   4
Direct
  0.781819  0.332373  0.238122
  0.917360  0.620567  0.083976
  0.275071 -0.213970  0.219092
  0.274804  0.137895  0.212526
  0.618989  0.969749  0.735216
  0.743766  0.827104  0.427157
  0.403471  0.496338  0.737558
  0.118572  0.638939  0.587461
  0.742145  0.480067  0.079121
  0.270167 -0.045361  0.077253
  0.784163  0.989028  0.581749
  0.265926  0.470053  0.563820
EA765
 1.0000000000000000
     4.624000   -0.000000   -0.000000
     0.000000    4.624000   -0.000000
     0.000000    0.000000    3.817000
 H   O  
   8   4
Direct
  0.664575  0.489201  0.586143
  0.510220  0.647231  0.284049
  0.169292 -0.173512  0.416470
  0.024532  0.108030  0.284047
  0.159294  0.465673  0.098620
  0.005408  0.615834 -0.208083
  0.670380 -0.007662  0.090399
  0.510882  0.146638 -0.212058
  0.490710  0.484795  0.443199
  0.002126 -0.048382  0.451776
 -0.004146  0.446013 -0.059137
  0.501405 -0.021836 -0.060317
EA767
 1.0000000000000000
     4.415000    0.000000    0.000000
    -0.000385    4.415000    0.000000
     0.019653   -0.036528    4.185794
 H   O  
   8   4
Direct
  1.076858  0.600057  0.435438
  0.944439  0.444809  0.734831
  0.419429  0.458428 -0.096481
  0.433791  0.464481  0.267414
  0.619527  0.103494  0.436128
  0.272839  0.102771  0.444062
  1.085058 -0.061318  0.071309
  0.796693  0.076576 -0.077295
  0.910540  0.611349  0.588250
  0.409995  0.597205  0.085006
  0.448582  0.104220  0.583426
  0.947062  0.110144  0.088684
EA521
 1.0000000000000000
     4.419000    0.000000   -0.000000
    -0.000231    4.419000    0.000000
     0.023486   -0.044271    4.178699
 H   O  
   8   4
Direct
  0.383237  0.594983  0.586843
  0.729546  0.604668  0.591666
  0.541652 -0.049246  0.114142
  0.394414  0.239658 -0.022257
 -0.116519  0.109244  0.596665
  0.229602  0.102571  0.589830
  0.043145  0.450620  0.113013
 -0.102300  0.740879 -0.021865
  0.558319  0.613134  0.446745
  0.559114  0.096214 -0.057987
  0.054765  0.115501  0.450177
  0.060293  0.595454 -0.059803
EA232
 1.0000000000000000
     4.432000   -0.000000   -0.000000
     0.000000    4.432000   -0.000000
     0.000000    0.000000    4.156000
 H   O  
   8   4
Direct
  0.167443  0.252122  1.119869
  0.325645  0.109236  0.825485
  0.527724  0.267218  0.490593
  0.812988  0.115880  0.633681
  0.329179  0.609603  0.614610
  0.182870  0.755664  0.315231
  0.826878  0.604948  1.113817
  0.682783  0.761745  0.819125
  0.153142  0.085837  0.968189
  0.659843  0.092951  0.467867
  0.166346  0.584203  0.460215
  0.657656  0.592173  0.965149
EA499
 1.0000000000000000
     4.412000   -0.000000    0.000000
    -0.001771    4.412000    0.000000
     0.034330   -0.060593    4.193422
 H   O  
   8   4
Direct
  0.494353  0.580487  0.590937
  0.336473  0.871793  0.716969
  0.480824  0.072053  0.097452
  0.334614  0.371618  0.216860
  0.988524  0.240072  0.716606
  0.839508  0.387993  0.425164
  0.987726  0.738886  1.219251
  0.840498  0.889385  0.928108
  0.325478  0.716460  0.550698
  0.323083  0.218183  0.048674
  0.815736  0.223222  0.575248
  0.814880  0.724266  1.077534
EA540
 1.0000000000000000
     4.417000    0.000000    0.000000
    -0.000617    4.417000    0.000000
     0.026860   -0.049628    4.181619
 H   O  
   8   4
Direct
  0.376020  0.380118  0.087264
  0.391792  0.725779  0.083896
  0.864602  0.698262  0.566024
  1.018783  0.407996  0.434083
  0.867877  0.198074  0.066881
  1.022125 -0.092083 -0.065207
  0.375781  0.055821  0.431444
  0.522134  0.208719  0.725466
  0.519884  0.546006  0.074424
  1.033817  0.562081  0.601149
  1.039977  0.063761  0.099739
  0.543735  0.037503  0.578843
EA612
 1.0000000000000000
     4.326000   -0.000000    0.000000
     0.000000    4.326000    0.000000
     0.001446   -0.002816    4.360999
 H   O  
   8   4
Direct
  0.758092  0.370824  0.404903
  0.916276  0.081870  0.542151
  0.275864  0.078211  0.891660
  0.572939  0.212076  1.037291
  0.796778  0.723298  0.711249
  0.794776  0.738421  1.061698
  0.295878  0.730159  0.212178
  0.293119  0.729740  0.562966
  0.923585  0.223073  0.368627
  0.424788  0.245574  0.872701
  0.934584  0.745377  0.886502
  0.433762  0.721776  0.388645
EA465
 1.0000000000000000
     4.424000    0.000000    0.000000
     0.000077    4.424000    0.000000
     0.019137   -0.036745    4.168794
 H   O  
   8   4
Direct
  0.480050  0.259303  0.103219
  0.614932  0.105297  0.401668
  0.128876  0.616057  0.402047
 -0.025689  0.758917  0.107647
  0.118190  0.110696  0.900062
 -0.029464  0.258371  0.605111
  0.602960  0.596437  0.571204
  0.604452  0.603686  0.936492
  0.448776  0.092301  0.249877
 -0.041683  0.591713  0.257094
 -0.050269  0.090074  0.752319
  0.467096  0.598869  0.755052
EA768
 1.0000000000000000
     4.415000    0.000000    0.000000
    -0.000385    4.415000    0.000000
     0.019653   -0.036528    4.185794
 H   O  
   8   4
Direct
  1.050048  0.525101  0.486040
  0.913229  0.385394  0.791477
  0.393821  0.402917 -0.049263
  0.414257  0.413910  0.314391
  0.396443 -0.117919  0.780801
  0.259125  0.038691  0.486511
  1.058671 -0.118185  0.121448
  0.771945  0.024321 -0.025196
  0.885474  0.548552  0.639535
  0.382522  0.543391  0.130478
  0.428335  0.049450  0.634328
  0.921522  0.053429  0.142296
EA573
 1.0000000000000000
     4.422000   -0.000000   -0.000000
     0.003241    4.421999    0.000000
     0.017338   -0.042046    4.173752
 H   O  
   8   4
Direct
  0.716263  0.901160  0.284508
  0.999746  0.740262  0.417733
  0.683343  0.365269  0.779858
  0.838243  0.079525  0.914482
  0.175849  0.718885  0.902357
  0.521261  0.726071  0.901238
  0.351323  0.043685  0.415517
  0.355903  0.389156  0.412805
  0.851283  0.730679  0.246055
  0.858033  0.233289  0.750636
  0.348689  0.715039  0.758062
  0.360105  0.214133  0.270418
EA460
 1.0000000000000000
     4.542000   -0.000000    0.000000
     0.028221    4.541912    0.000000
    -0.020161   -0.032879    3.955812
 H   O  
   8   4
Direct
  0.041590  0.246545  0.087442
 -0.100426 -0.036708  0.225004
  0.362922  0.420633  0.223756
  0.218262  0.585908 -0.075042
  0.872603  0.455337  0.719606
  0.726534  0.604076  0.413358
  0.389495  0.248036  0.723363
  0.538305  0.101293  0.415301
 -0.130098  0.120257  0.062252
  0.389402  0.586238  0.073259
  0.891632  0.622070  0.569084
  0.371870  0.082645  0.567129
EA235
 1.0000000000000000
     4.394000    0.000000    0.000000
     0.086730    4.393144    0.000000
    -0.083513   -0.081881    4.229383
 H   O  
   8   4
Direct
  0.093276  0.781244  0.702812
  0.253120  0.922071  0.997070
  0.596148  0.270432  0.689314
  0.741653  0.422107  0.986489
  0.598452  0.769976  0.193065
  0.744946  0.921220  0.489653
  0.096116  0.272880  0.190844
  0.240692  0.426663  0.487688
  0.267575  0.754075  0.844997
  0.765352  0.250888  0.839453
  0.767958  0.750046  0.342658
  0.265335  0.254931  0.341343
EA484
 1.0000000000000000
     4.421000    0.000000   -0.000000
     0.005556    4.420997    0.000000
     0.013116   -0.040457    4.174783
 H   O  
   8   4
Direct
  0.671451  0.792381 -0.142960
  0.819332  0.642167  0.148985
  0.025398  0.146125  0.823183
  0.027652  0.143576  1.187849
  0.647114  0.286080  0.353079
  0.510486 -0.011530  0.478139
  0.026673  0.812841  0.521494
  0.309900  0.653870  0.658333
  0.647738  0.625005  0.004521
  0.162895  0.148979  1.003948
  0.677049  0.129084  0.511897
  0.170680  0.650885  0.478122
EA505
 1.0000000000000000
     4.469000   -0.000000   -0.000000
     0.000000    4.469000   -0.000000
     0.000000    0.000000    4.087000
 H   O  
   8   4
Direct
 -0.135239 -0.086932  0.277949
 -0.279897  0.209509  0.164430
  0.536714  0.420565  0.797543
  0.686281  0.708756  0.666327
  0.212353  0.735266  0.467878
  0.362196  0.582935  0.171158
  0.034444  0.073287  0.669756
  0.376717  0.067762  0.664481
 -0.298051  0.050898  0.325975
  0.705209  0.554829  0.833338
  0.187916  0.571753  0.313069
  0.207871  0.078796  0.813121
EA148
 1.0000000000000000
     4.338000   -0.000000   -0.000000
     0.000000    4.338000   -0.000000
     0.000000    0.000000    4.338000
 H   O  
   8   4
Direct
  0.453261  0.350506  0.073800
  0.308314  0.510109 -0.210056
  0.126317  0.360679  0.435310
 -0.001337  0.660932  0.293715
 -0.181278 -0.141906 -0.046349
 -0.052375  0.148678  0.115733
  0.626210 -0.128975  0.461788
  0.489770  0.171853  0.595457
  0.483651  0.519756 -0.070222
 -0.040067  0.509787  0.454887
 -0.009251  0.002079 -0.048954
  0.467613  0.026112  0.426215
EA362
 1.0000000000000000
     4.417000    0.000000   -0.000000
     0.051573    4.416699   -0.000000
    -0.046443   -0.052841    4.183409
 H   O  
   8   4
Direct
  0.211384  0.083232  0.923080
  0.065261  0.379424  1.052494
  0.213885  0.582854  0.427126
  0.053522  0.726844  0.718943
  0.558699  0.877970  1.096051
  0.709986  0.591516  1.238537
  0.556982  0.228889  0.726796
  0.711418  0.085127  0.430184
  0.231279  0.236434  1.090458
  0.221360  0.754991  0.574278
  0.730121  0.739364  1.069975
  0.721734  0.257216  0.577823
EA647
 1.0000000000000000
     4.422000    0.000000    0.000000
     0.002393    4.421999    0.000000
     0.018363   -0.041762    4.174751
 H   O  
   8   4
Direct
  0.294478  0.676247  0.092769
  0.295529  0.329871  0.100118
  0.282165  0.166191  0.606618
  0.119025  0.024116  0.315507
  0.953010  0.987289  0.815430
  0.794929  0.848383  1.110447
  0.931977  0.501422  0.272824
  0.929318  0.508387  0.637654
  0.284740  0.499097 -0.046752
  0.292795 -0.001695  0.454717
  0.784815  1.017657  0.963820
  0.794198  0.511454  0.454531
EA888
 1.0000000000000000
     4.420000    0.000000    0.000000
    -0.000077    4.420000    0.000000
     0.021209   -0.040523    4.175750
 H   O  
   8   4
Direct
  0.421011  0.709781  0.411148
  0.276502  0.999287  0.556434
  0.930240  0.204650  0.411733
  0.790839  0.502880  0.541494
  0.937194  1.033233  0.928270
  0.939784  0.687431  0.930763
  0.276539  0.344577  0.929573
  0.433007  0.201476  1.221807
  0.450976  0.865759  0.573399
  0.947685  0.353440  0.583846
  0.932754  0.862720  1.073152
  0.444803  0.371672  1.076059
EA330
 1.0000000000000000
     4.424000    0.000000   -0.000000
     0.030036    4.423898    0.000000
    -0.019660   -0.044721    4.171714
 H   O  
   8   4
Direct
  0.396278  0.201559  0.803993
  0.269151 -0.092872  0.944576
  0.415438  0.707272  0.305369
  0.262256  0.420432  0.435290
  0.913679  0.743477  1.094894
  0.768139  0.581139  0.803456
  0.765476  0.066946  0.303998
  0.920654 -0.084067  0.594061
  0.432334  0.051750  0.969245
  0.432414  0.554949  0.471142
  0.943243  0.576273  0.944655
  0.938091  0.084647  0.447429
EA642
 1.0000000000000000
     4.404000    0.000000    0.000000
     0.000538    4.404000   -0.000000
     0.018806   -0.037467    4.208791
 H   O  
   8   4
Direct
  0.965224  0.095518  1.048018
  0.827813  0.240812  0.747977
  0.482490  0.568220  0.749776
  0.181760  0.422605  0.862422
  0.675486  0.599262  0.247291
  0.966941  0.736700  0.392701
  0.464422  0.082761  0.545926
  0.326312  0.240337  0.253948
  0.804414  0.071448  0.892104
  0.330184  0.578562  0.917685
  0.824288  0.569367  0.414093
  0.296580  0.070251  0.396553
EA482
 1.0000000000000000
     4.422000    0.000000   -0.000000
     0.012812    4.421981    0.000000
     0.005098   -0.045097    4.172753
 H   O  
   8   4
Direct
  0.645065  0.517914  0.413377
  0.646197  0.519188  0.778367
  0.652315  0.021315  0.241775
  0.514221  0.175795 -0.054895
  0.013131  1.178582  0.446881
  0.158844  1.020847  0.737443
 -0.004632  0.339338  0.951464
 -0.001336  0.685426  0.951311
  0.509173  0.513042  0.596632
  0.486292  0.006839  0.089461
 -0.013639  1.010761  0.593379
  0.000503  0.513756  1.095358
EA387
 1.0000000000000000
     4.445000    0.000000    0.000000
    -0.000465    4.445000   -0.000000
     0.009227   -0.016434    4.129957
 H   O  
   8   4
Direct
  0.496783  0.862566  0.527093
  0.785184  0.708280  0.653997
  0.805933  0.204376  0.855963
  0.657327  0.358083  1.151514
 -0.007282  0.861138  0.031357
  0.283650  0.709263  0.155387
  1.156050  0.357948  0.653962
  1.307424  0.207254  0.358134
  0.631755  0.693884  0.487055
  0.640982  0.184215  1.009385
  0.129643  0.694423 -0.010930
  1.142194  0.184551  0.510778
EA685
 1.0000000000000000
     4.401000    0.000000   -0.000000
    -0.000307    4.401000    0.000000
     0.016405   -0.030381    4.214859
 H   O  
   8   4
Direct
  0.912648  0.464479  0.528232
  0.627053  0.609668  0.379868
  0.275826  0.595314  0.679546
  0.272819  0.588262  1.040857
  0.126554 -0.034823  0.216624
  0.273183  0.110038  0.513825
  0.779773  0.085915  0.681577
  0.775489  0.093951  1.042907
  0.764166  0.437099  0.360273
  0.262452  0.455176  0.856025
  0.294348 -0.058370  0.364219
  0.788387 -0.046577  0.864973
EA710
 1.0000000000000000
     4.422000   -0.000000   -0.000000
    -0.000232    4.422000   -0.000000
     0.021850   -0.041221    4.172739
 H   O  
   8   4
Direct
  0.259186  0.612856  0.538957
  0.133711  0.313842  0.672172
  0.626924 -0.176864  0.717546
  0.765035  0.124306  0.838997
  0.426475 -0.027309  0.340369
  0.281776  0.120596  0.045757
  0.914795  0.288088  0.206264
  0.920226  0.633588  0.187624
  0.291918  0.464303  0.705879
  0.778868 -0.024634  0.666554
  0.254151 -0.043355  0.197099
  0.782480  0.462187  0.182534
EA871
 1.0000000000000000
     4.406000   -0.000000   -0.000000
    -0.000154    4.406000    0.000000
     0.017243   -0.032650    4.203838
 H   O  
   8   4
Direct
  0.678352  0.063785  1.111772
  0.829351 -0.068312  0.808802
  0.668115  0.567790  0.600822
  0.828873  0.434038  0.304558
  0.166976  0.429254  0.955125
  0.513632  0.427696  0.962246
  0.190210  0.065238  0.292930
  0.474318 -0.090963  0.433530
  0.845359  0.096001  0.963739
  0.835789  0.602800  0.454767
  0.340966  0.564829  0.953779
  0.338546  0.081140  0.463074
EA333
 1.0000000000000000
     4.420000    0.000000    0.000000
    -0.001003    4.420000   -0.000000
     0.019470   -0.034413    4.177813
 H   O  
   8   4
Direct
  0.516657  0.346464  0.969134
  0.521064  0.339405  0.604947
 -0.113050  0.705129  0.977301
 -0.108284  0.703178  0.612389
  0.515069  0.864248  0.444744
  0.364021  0.720049  0.147713
  0.189051  0.197951  0.141340
 -0.156436  0.197505  0.140600
  0.515256  0.206140  0.788875
  0.025869  0.708645  0.796332
  0.533020  0.695929  0.294089
  0.015485  0.198619  0.284865
EA352
 1.0000000000000000
     4.446000    0.000000   -0.000000
    -0.000466    4.446000    0.000000
     0.008790   -0.015561    4.127961
 H   O  
   8   4
Direct
  0.189047  0.330510  0.135678
 -0.093887  0.493506  0.007732
  0.046006  0.842813  0.511001
  0.187839  0.993905  0.810958
  0.535629  0.870809  0.348242
  0.540272  0.862307 -0.020389
  0.695956  0.340768  0.644053
  0.405211  0.483472  0.509365
  0.059659  0.503482  0.175016
  0.021757  1.011456  0.659303
  0.522213  1.001420  0.160232
  0.563566  0.513531  0.668354
EA606
 1.0000000000000000
     4.433000    0.000000    0.000000
    -0.001006    4.433000   -0.000000
     0.018488   -0.032621    4.153831
 H   O  
   8   4
Direct
  0.350034  0.284885  0.248528
  0.494992  0.134409  0.544980
  0.685056  0.473044  0.379398
  0.830745  0.765416  0.251182
  0.845745  0.272963  0.756923
  0.987880  0.120067  1.051879
  0.194988  0.639980  0.748672
  0.486305  0.779735  0.889151
  0.326999  0.117582  0.396059
  0.850237  0.613856  0.418220
  0.820698  0.103269  0.901722
  0.347163  0.611727  0.913562
EA607
 1.0000000000000000
     4.433000    0.000000    0.000000
    -0.001006    4.433000   -0.000000
     0.018488   -0.032621    4.153831
 H   O  
   8   4
Direct
  0.376384  0.272197  0.250272
  0.523940  0.125821  0.546451
  0.732945  0.643407  0.248801
  1.025094  0.778538  0.391981
  0.885564  0.284842  0.749565
  1.028307  0.132093  1.045462
  0.226089  0.472378  0.872412
  0.368802  0.768080  0.749038
  0.355050  0.104922  0.398961
  0.884621  0.611289  0.413428
  0.861254  0.116476  0.895290
  0.387053  0.616760  0.916518
EA805
 1.0000000000000000
     4.419000    0.000000   -0.000000
    -0.000309    4.419000    0.000000
     0.020860   -0.039092    4.178765
 H   O  
   8   4
Direct
  0.600899  0.541227  0.733451
  0.751034  0.254242  0.871127
  0.249468  0.425263  0.243907
  0.097515  0.573606  0.539813
  0.250559  0.926777  0.748829
  0.093609  1.070863  1.043907
  0.598097  1.049934  0.242031
  0.751537  0.759842  0.367870
  0.584152  0.394891  0.905401
  0.075445  0.408843  0.385817
  0.076071  0.906034  0.889341
  0.583885  0.898076  0.408684
EA432
 1.0000000000000000
     4.535000    0.000000    0.000000
     0.032610    4.534883   -0.000000
    -0.026046   -0.033133    3.968776
 H   O  
   8   4
Direct
  0.203435  0.660701  0.158781
  0.051670  0.377314  0.280873
  0.207932  0.158381  0.654164
  0.051768 -0.121748  0.779168
  0.554448  1.034956  0.159073
  0.891929  1.029730  0.160773
  0.554038  0.535669  0.659503
  0.891527  0.529843  0.661698
  0.223574  0.500632  0.318794
  0.224050  0.000887  0.818046
  0.723590  1.054114  0.308600
  0.723054  0.554716  0.809227
EA648
 1.0000000000000000
     4.421000   -0.000000    0.000000
     0.000154    4.421000    0.000000
     0.022297   -0.043210    4.174717
 H   O  
   8   4
Direct
  0.473625  0.243297  0.671164
  0.312625  0.381005  0.378750
  0.455276  0.728542  0.168567
  0.308319  0.878115 -0.124555
  0.945166  0.731682  0.678090
  0.661023  0.887129  0.540460
  0.940881  0.391215  0.043103
  0.656893  0.232611  0.180675
  0.309670  0.208222  0.521438
  0.281735  0.714123  0.026820
  0.800128  0.719577  0.503728
  0.804639  0.221596  0.007240
EA158
 1.0000000000000000
     4.338000   -0.000000   -0.000000
     0.000000    4.338000   -0.000000
     0.000000    0.000000    4.338000
 H   O  
   8   4
Direct
  0.434245  0.349454  0.062868
  0.299890  0.510224 -0.225364
  0.096596  0.342658  0.430517
  0.092524  0.694746  0.420031
 -0.204022 -0.128152 -0.054492
 -0.064212  0.165148  0.093791
  0.608891 -0.134180  0.430622
  0.478725  0.162426  0.579377
  0.472132  0.516979 -0.081604
 -0.043896  0.517375  0.434155
 -0.036222  0.019494 -0.074828
  0.442423  0.015947  0.413026
EA691
 1.0000000000000000
     4.424000    0.000000   -0.000000
    -0.000463    4.424000   -0.000000
     0.021538   -0.039798    4.168754
 H   O  
   8   4
Direct
  0.042564  0.797679  0.738613
  0.326180  0.643036  0.593378
  0.342956  0.293900  0.233158
  0.055993  0.142511  0.095016
  0.845533  0.294257  0.736856
  0.558757  0.146747  0.593283
  0.540393  0.794227  0.230397
  0.827226  0.639295  0.093544
  0.174106  0.623113  0.761141
  0.209297  0.121418  0.259779
  0.709701  0.122929  0.760090
  0.672452  0.620955  0.258675
EA286
 1.0000000000000000
     4.375000    0.000000    0.000000
     0.011148    4.374986   -0.000000
     0.035738   -0.099927    4.264680
 H   O  
   8   4
Direct
  0.013113  0.163415  0.188419
  0.162196  0.021043  0.478653
  0.510122  0.155069  0.651346
  0.503122  0.153395  1.008821
  0.335547  0.507421  0.479742
  0.685551  0.507025  0.479034
 -0.163896  0.505727  0.983016
  0.185842  0.506931  0.982083
 -0.006350 -0.004509  0.333011
  0.499512  0.016616  0.825878
  0.511280  0.504043  0.338083
  0.011632  0.502706  0.841370
EA274
 1.0000000000000000
     4.869000   -0.000000   -0.000000
     0.000000    4.869000   -0.000000
     0.000000    0.000000    3.443000
 H   O  
   8   4
Direct
  0.853821  0.034867  0.202886
  0.704170 -0.136873 -0.108129
  0.207545  0.827167  0.693720
  0.348492  0.657818  0.373531
  0.336107  0.177744  0.228729
  0.327881  0.215576 -0.210818
 -0.169886  0.214414  0.703006
 -0.018365  0.367332  0.376794
  0.872055 -0.129278  0.044205
  0.371491  0.820937  0.532890
  0.319610  0.319205  0.030981
 -0.180877  0.376983  0.540010
EA770
 1.0000000000000000
     4.422000   -0.000000   -0.000000
    -0.000232    4.422000   -0.000000
     0.021850   -0.041221    4.172739
 H   O  
   8   4
Direct
  0.874657  0.636948  0.400912
  0.581640  0.760400  0.249805
  0.593090  0.107485  0.890177
  0.728501  0.264405  0.593236
  0.388428  0.265063  0.261181
  0.101695  0.113960  0.399500
  0.235373  0.743368  0.915877
  0.242928  0.744251  0.551169
  0.721290  0.590539  0.241571
  0.763245  0.099964  0.741647
  0.255027  0.092211  0.232890
  0.229917  0.607730  0.731627
EA552
 1.0000000000000000
     4.420000    0.000000   -0.000000
     0.001003    4.420000    0.000000
     0.019902   -0.040829    4.176753
 H   O  
   8   4
Direct
  0.709909  0.509331  0.130660
  0.850603  0.346290  0.418953
  0.707576  1.023103  0.940826
  1.000346  1.171001  0.812161
  0.213233  0.502900  0.624832
  0.500439  0.348786  0.756425
  0.344204  0.855436  0.135048
  0.213852  1.159974  0.258041
  0.885184  0.511139  0.270968
  0.849353  1.017245  0.762032
  0.353994  0.508019  0.803292
  0.377459  1.016189  0.291506
EA711
 1.0000000000000000
     4.422000   -0.000000   -0.000000
    -0.000232    4.422000   -0.000000
     0.021850   -0.041221    4.172739
 H   O  
   8   4
Direct
  0.877185  0.627603  0.410685
  0.591538  0.761875  0.253688
  0.600510  0.109011  0.890424
  0.736273  0.264682  0.593105
  0.397576  0.266135  0.260286
  0.110053  0.117814  0.400091
  0.241887  0.745176  0.917281
  0.248755  0.745223  0.552556
  0.729443  0.590618  0.242918
  0.770914  0.100923  0.742290
  0.263420  0.093658  0.233875
  0.235499  0.609117  0.733440
EA326
 1.0000000000000000
     4.415000   -0.000000    0.000000
     0.058253    4.414616   -0.000000
    -0.054819   -0.055343    4.187275
 H   O  
   8   4
Direct
  0.289800  0.148819  0.521058
  0.287600  0.150847  0.156665
  0.288250  0.653469  1.021596
  0.288046  0.649812  0.657188
  0.788597  0.484899  0.976016
  0.793220  0.138303  0.967629
  0.631671 -0.045178  0.344706
  0.768286 -0.338974  0.486226
  0.292019  0.286735  0.341443
  0.286884  0.788728  0.839494
  0.783477  0.313155  0.828629
  0.799849 -0.188221  0.322637
EA234
 1.0000000000000000
     4.339000   -0.000000   -0.000000
     0.076786    4.338321   -0.000000
    -0.076786   -0.075439    4.337665
 H   O  
   8   4
Direct
  0.288423  0.708586  0.537911
  0.290702  0.704326  0.185670
  0.934022  0.062175  0.524258
  1.087542  0.344207  0.382189
  0.793713  0.701559  0.687172
  0.801392  0.705431  1.040110
  0.279050  0.053123  0.880543
  0.573693  0.198740  1.020309
  0.427826  0.689301  0.364822
  0.913250  0.207150  0.356196
  0.934275  0.726679  0.862913
  0.425645  0.216509  0.850352
EA444
 1.0000000000000000
     4.428000    0.000000    0.000000
     0.008965    4.427991    0.000000
     0.003269   -0.030806    4.161885
 H   O  
   8   4
Direct
  0.676241  0.325745  0.490324
  0.971330  0.449340  0.340627
  0.173389  0.337961  0.975658
  0.315939  0.633591  0.849968
  0.689795  0.982962  0.849705
  0.827648  0.827451  1.146208
  0.197426  0.976682  0.343727
  0.481594  0.820067  0.480198
  0.814873  0.496148  0.497705
  0.336838  0.479910  1.014774
  0.860129  0.992312  0.996855
  0.345132  0.989180  0.516394
EA708
 1.0000000000000000
     4.397000    0.000000   -0.000000
    -0.000153    4.397000   -0.000000
     0.015920   -0.030071    4.222863
 H   O  
   8   4
Direct
  0.311881  0.184357  0.219019
  0.311668  0.531501  0.222894
  1.136301  0.858685  0.069534
  0.789209  0.869117  0.088858
  0.640857  0.856763  0.580360
  0.292804  0.863674  0.583241
  0.946379  0.508846  0.881216
  0.790684  0.222525  0.741510
  0.448644  0.358084  0.217277
  0.969343  0.852771  0.221104
  0.467649  0.873081  0.723845
  0.959539  0.361948  0.708294
EA773
 1.0000000000000000
     4.423000    0.000000   -0.000000
    -0.000154    4.423000    0.000000
     0.021330   -0.040474    4.170749
 H   O  
   8   4
Direct
  0.473463  0.166662  0.896616
  0.473386  0.511832  0.883901
  0.465718  0.666312  0.394652
  0.474166  1.011499  0.381139
  0.792325  0.495778  0.235685
  1.137730  0.494581  0.234741
 -0.164022  1.014330  0.763998
  0.119401  0.859330  0.904879
  0.483248  0.333440  0.746178
  0.460952  0.832932  0.243815
  0.964671  0.359156  0.236965
 -0.027003  0.844390  0.731990
EA424
 1.0000000000000000
     4.428000    0.000000    0.000000
     0.008965    4.427991    0.000000
     0.003269   -0.030806    4.161885
 H   O  
   8   4
Direct
  0.711001  0.280713  0.440130
  1.004468  0.414075  0.297190
  0.201817  0.297231  0.931917
  0.344244  0.592829  0.806000
  0.717408  0.942376  0.807199
  0.855483  0.786979  1.103588
  0.226217  0.935107  0.300280
  0.510928  0.778533  0.435800
  0.845178  0.454437  0.452871
  0.365511  0.439039  0.970621
  0.887961  0.951654  0.954041
  0.374549  0.947675  0.472346
EA840
 1.0000000000000000
     4.416000    0.000000   -0.000000
    -0.000231    4.416000    0.000000
     0.019867   -0.037396    4.184786
 H   O  
   8   4
Direct
  0.140664  0.436682  0.326599
 -0.014379  0.720141  0.472789
  0.638656  0.733521  0.835224
  0.484669  0.447857  0.972475
  0.138404 -0.067910  0.836540
 -0.016020  0.219650  0.973950
  0.637086  1.239813  0.328952
  0.492880  0.953031  0.475408
 -0.033844  0.568882  0.303846
  0.465587  0.600068  0.807030
 -0.035052  0.064723  0.808726
  0.466104  1.102348  0.308184
EA427
 1.0000000000000000
     4.431000    0.000000    0.000000
     0.005027    4.430997   -0.000000
     0.008706   -0.030409    4.156880
 H   O  
   8   4
Direct
  0.788981  0.105353  0.541857
  1.081250 -0.027415  0.394622
  0.283047  0.127675  1.040518
  0.567946 -0.030175  0.905243
  0.273185  0.469317  0.404960
  0.557304  0.626995  0.540657
  0.763695  0.471770  0.900299
  1.051829  0.616226  1.043683
  0.942906  0.142353  0.379772
  0.436347  0.142695  0.873731
  0.404691  0.642167  0.373687
  0.898137  0.643924  0.879703
EA842
 1.0000000000000000
     4.424000    0.000000    0.000000
    -0.000309    4.424000   -0.000000
     0.021548   -0.040401    4.170749
 H   O  
   8   4
Direct
  0.650271  0.803020  0.602857
  0.786969  1.092732  0.456274
  0.306300  0.324564  0.452966
  0.147173  0.609253  0.589775
  0.301099  0.828046 -0.049420
  0.148709  1.114964  0.091559
  0.648700  0.311050  0.095785
  0.799408  0.597371 -0.042468
  0.820288  0.941441  0.620198
  0.320833  0.478163  0.620438
  0.322119  0.982325  0.116587
  0.820557  0.445558  0.123156
EA334
 1.0000000000000000
     4.408000   -0.000000    0.000000
     0.051314    4.407701    0.000000
    -0.041069   -0.063475    4.201320
 H   O  
   8   4
Direct
  0.748914  0.127487  0.343091
  1.042964 -0.001957  0.191869
  0.776135  0.638587  0.824663
  1.067641  0.485215  0.691043
  0.227141 -0.032385  0.706810
  0.573714 -0.023849  0.707901
  0.264489  0.483723  0.191693
  0.553484  0.632401  0.332421
  0.895188 -0.038933  0.357560
  0.918602  0.471210  0.859598
  0.401623 -0.029469  0.850402
  0.416213  0.463454  0.359877
EA675
 1.0000000000000000
     4.406000    0.000000   -0.000000
    -0.000384    4.406000    0.000000
     0.017394   -0.032217    4.204841
 H   O  
   8   4
Direct
  0.524385  1.137996  0.275556
  0.237467  0.984086  0.138526
  1.014206  0.637489  0.274571
  0.723131  0.492587  0.134706
  0.533191  0.487754  0.638158
  0.246193  0.643984  0.775696
  0.732526 -0.017538  0.650125
  0.875157  0.136772  0.944959
  0.383280  0.971119  0.310939
  0.873602  0.468342  0.300823
  0.383882  0.474565  0.808566
  0.905387 -0.028438  0.793274
EA836
 1.0000000000000000
     4.422000   -0.000000   -0.000000
    -0.000154    4.422000    0.000000
     0.021486   -0.040712    4.172746
 H   O  
   8   4
Direct
  0.236363  0.802453  0.808993
 -0.109107  0.789118  0.808329
  0.554980  0.294720  0.957396
  0.401291  0.434395  0.662785
  0.716466  0.935787  0.456057
  0.424979  0.788918  0.323103
  0.241778  0.289899  0.301712
 -0.103691  0.300836  0.305181
  0.058267  0.930970  0.797961
  0.566526  0.464981  0.812208
  0.562318  0.959283  0.292680
  0.073760  0.431229  0.313503
EA255
 1.0000000000000000
     4.351000    0.000000    0.000000
    -0.003569    4.350999    0.000000
     0.070907   -0.125033    4.310604
 H   O  
   8   4
Direct
  0.190688  0.990872  0.531727
  0.051431  0.709228  0.695530
  0.554077  0.510353  0.696069
  0.696398  0.211034  0.556495
  0.686879  1.015039  0.047488
  0.534762  0.726152  0.186814
  0.065778  0.367073  0.391021
  0.066458  0.363690  0.037178
  0.221625  0.854461  0.703896
  0.720697  0.364789  0.722483
  0.704097  0.870721  0.214842
  0.204562  0.362836  0.211994
EA572
 1.0000000000000000
     4.419000    0.000000    0.000000
    -0.000231    4.419000   -0.000000
     0.023704   -0.044636    4.178694
 H   O  
   8   4
Direct
  0.774178  0.409663  0.603251
  0.919882  0.260274  0.896214
  0.426691  0.396109  0.248189
  0.080989  0.407527  0.252233
  0.431817  0.911389  0.743420
  0.086071  0.901566  0.744728
  0.605812  0.763212  0.096153
  0.897880  0.908859  0.229707
  0.756138  0.236672  0.743880
  0.248944  0.265826  0.241008
  0.263017  0.770895  0.752363
  0.759936  0.738720  0.259303
EA771
 1.0000000000000000
     4.423000    0.000000    0.000000
    -0.000154    4.423000    0.000000
     0.021262   -0.040338    4.171751
 H   O  
   8   4
Direct
  0.428229  0.285401  0.868625
  0.589829  0.569636  0.738657
  0.446001  0.792846  0.373481
  0.587216  1.081159  0.228322
  0.090019  0.277287  0.237496
 -0.068505  0.562297  0.374452
  0.089014  0.771657  0.737059
 -0.063608  1.058974  0.876940
  0.415547  0.439489  0.704370
  0.416306  0.943978  0.208567
 -0.083329  0.408888  0.206795
 -0.084896  0.903713  0.712005
EA594
 1.0000000000000000
     4.422000   -0.000000   -0.000000
     0.003010    4.421999    0.000000
     0.017925   -0.042566    4.174745
 H   O  
   8   4
Direct
  0.596518  0.433320  0.518372
  0.311699  0.593536  0.384915
  0.604650 -0.049731  0.061761
  0.305084  0.087377  0.189927
  0.963527 -0.031300  0.697252
  1.117995  0.256352  0.567083
  0.958451  0.459994  0.193609
  1.121317  0.603342 -0.095003
  0.453891  0.596701  0.562584
  0.464192  0.116998  0.031608
  0.953507  0.115338  0.524970
  0.953182  0.633662  0.052551
EA775
 1.0000000000000000
     4.422000   -0.000000    0.000000
    -0.000232    4.422000   -0.000000
     0.021777   -0.041076    4.172741
 H   O  
   8   4
Direct
  0.273014  0.009788  0.521220
  0.281732  0.355473  0.524111
  0.273990  0.529018 -0.000657
  0.128242  0.823587  0.130996
  0.784526  0.521068  0.526300
  0.779969  0.867004  0.518938
 -0.039026  0.330298  0.170658
 -0.385125  0.323300  0.163579
  0.274562  0.183119  0.666487
  0.284450  0.674130  0.175601
  0.775475  0.697997  0.666260
 -0.209208  0.190801  0.169884
EA806
 1.0000000000000000
     4.423000    0.000000    0.000000
    -0.000232    4.423000    0.000000
     0.021553   -0.040629    4.171746
 H   O  
   8   4
Direct
 -0.104561  0.499422  0.489314
  0.048162  0.788442  0.622010
  0.399403  0.304775  0.457571
  0.524862  0.008969  0.308715
  0.691817  0.812175 -0.016801
  0.405473  0.659714  0.124581
  0.055169 -0.041467  0.114152
  0.055208  0.303996  0.105827
  0.066976  0.633619  0.455835
  0.565032  0.161013  0.473503
  0.550919  0.646180 -0.050204
  0.043105  0.126809 -0.033180
EA306
 1.0000000000000000
     4.338000   -0.000000   -0.000000
     0.000000    4.338000   -0.000000
     0.000000    0.000000    4.338000
 H   O  
   8   4
Direct
  0.432057  0.887841  0.447532
  0.284698  1.025710  0.742321
 -0.186968  0.051989  0.271657
 -0.199052  0.040779 -0.080528
  0.456456  0.384514  1.260622
  0.611183  0.521785  0.970280
  0.796785  0.560857  0.452554
  1.092715  0.699686  0.594498
  0.454342  1.052582  0.597699
 -0.054642  0.037660  0.090902
  0.443985  0.555391  1.116041
  0.942212  0.535093  0.621647
EA815
 1.0000000000000000
     4.424000   -0.000000   -0.000000
    -0.000386    4.424000    0.000000
     0.021621   -0.040473    4.170748
 H   O  
   8   4
Direct
  0.562840  0.878060  0.543180
  0.848017  0.718653  0.408690
  0.192954  0.041159  0.422315
  0.204118  0.386625  0.419023
  0.705206  0.354794 -0.098047
  0.854998  0.068632  0.041806
  0.329646  0.875884  1.031507
  0.039562  0.723042  0.900949
  0.694806  0.704640  0.575579
  0.213586  0.215650  0.563457
  0.680032  0.200949  0.065126
  0.184835  0.715317  1.074762
EA291
 1.0000000000000000
     4.408000   -0.000000   -0.000000
     0.016310    4.407970    0.000000
     0.000000   -0.045312    4.200756
 H   O  
   8   4
Direct
  0.397347  0.332078  0.252260
  0.558368  0.477446 -0.034424
  0.567582  0.976857  0.739287
  0.405587  0.828535  0.449332
  0.741007  0.642254  0.575114
  0.890846  0.346487  0.450707
  0.732095 -0.011797  0.245889
  0.892779 -0.163966 -0.041038
  0.384727  0.501557  0.106528
  0.398093  1.002211  0.593323
  0.897164  0.493330  0.625188
  0.900727  0.012551  0.099308
EA531
 1.0000000000000000
     4.428000   -0.000000   -0.000000
     0.001314    4.428000    0.000000
     0.017583   -0.037060    4.162798
 H   O  
   8   4
Direct
  0.550566  0.988128  0.552706
  0.262880  0.831274  0.420477
  0.545709  0.486242  0.055602
  0.259614  0.330871 -0.081130
  0.903078  0.332852  0.250484
  0.897404  0.678520  0.247890
  0.903684  0.832704  0.750456
  0.897486  1.178362  0.747698
  0.398994  1.000752  0.384395
  0.396384  0.500143 -0.114818
  0.899960  0.507710  0.393564
  0.900756  1.007619  0.893441
EA750
 1.0000000000000000
     4.415000    0.000000    0.000000
    -0.000385    4.415000    0.000000
     0.019653   -0.036528    4.185794
 H   O  
   8   4
Direct
  1.061417  0.553544  0.452173
  0.931906  0.405602  0.756506
  0.411181  0.423729 -0.068313
  0.428389  0.430939  0.295358
  0.570471 -0.099890  0.588390
  0.283918  0.050539  0.450335
  1.077672 -0.100422  0.091385
  0.788934  0.040824 -0.053063
  0.895246  0.567295  0.604868
  0.402338  0.562758  0.112583
  0.437413  0.074075  0.614728
  0.942304  0.072819  0.109949
EA437
 1.0000000000000000
     3.443000   -0.000000   -0.000000
     0.000000    3.443000   -0.000000
     0.000000    0.000000    6.886000
 H   O  
   8   4
Direct
  0.095584 -0.197357  0.864665
  0.024280  0.222646  0.795023
  0.029461  0.249580  0.454554
  0.344933  0.250565  0.296813
 -0.144511 -0.260112  0.202988
 -0.147383 -0.581705  0.048141
  0.520706  0.739349  0.550207
  0.516393  0.421392  0.707134
  0.188624  0.069512  0.880274
  0.189610  0.077579  0.376634
 -0.318210 -0.417322  0.124471
  0.690626  0.576942  0.628064
EA709
 1.0000000000000000
     4.422000   -0.000000   -0.000000
    -0.000232    4.422000   -0.000000
     0.021850   -0.041221    4.172739
 H   O  
   8   4
Direct
  0.608080  0.257301  0.823522
  0.262155  0.266897  0.833142
  0.419109  0.795822  0.177983
  0.268140  0.642825  0.471018
  0.916405  0.768059  0.685280
  0.776057  0.620030  0.983884
  1.093854 -0.023637  0.314186
  0.939259  0.260732  0.178584
  0.431393  0.126753  0.836941
  0.439955  0.628100  0.325102
  0.938144  0.596280  0.827356
  0.921448  0.110353  0.346551
EA683
 1.0000000000000000
     4.385000    0.000000    0.000000
    -0.000153    4.385000    0.000000
     0.013117   -0.024825    4.245907
 H   O  
   8   4
Direct
  0.444851  0.776470  0.396321
  0.598295  0.489771  0.533887
 -0.043049  0.625827  1.029993
  0.249144  0.479444  0.890925
  0.729938  0.128213  0.696164
  0.732939  0.142922  1.055820
  0.235704  0.134146  0.196205
  0.237624  0.131832  0.555868
  0.616590  0.638498  0.365757
  0.105082  0.645312  0.860279
  0.594811  0.154234  0.876875
  0.099818  0.118273  0.377024
EA696
 1.0000000000000000
     4.338000   -0.000000   -0.000000
     0.000000    4.338000   -0.000000
     0.000000    0.000000    4.338000
 H   O  
   8   4
Direct
  0.189530  0.777330  0.788762
  0.066329  0.615797  1.081693
  0.374630  0.108812  0.579107
  0.246414 -0.048363  0.285814
  0.858440  0.099304  0.760565
  0.574882 -0.051279  0.915028
  0.583225  0.628766  0.260771
  0.867213  0.776192  0.417465
  0.238516  0.616874  0.937746
  0.200898  0.111001  0.436949
  0.711049  0.126200  0.927064
  0.729718  0.599599  0.427710
EA744
 1.0000000000000000
     4.423000    0.000000    0.000000
    -0.000309    4.423000    0.000000
     0.021772   -0.040774    4.171744
 H   O  
   8   4
Direct
  0.226440  0.258732  0.376695
  0.218850  0.243734  0.741358
  0.758657  0.923283  0.555353
  0.758406  0.577941  0.555723
  0.258640  0.922466  0.056807
  0.258291  0.577120  0.056320
  0.722455  0.252379 -0.126414
  0.722080  0.247656  0.238876
  0.085788  0.251381  0.556506
  0.622607  0.750686  0.555506
  0.122559  0.749940  0.056501
  0.585439  0.249852  0.056752
EA199
 1.0000000000000000
     4.344000   -0.000000    0.000000
    -0.004094    4.343998   -0.000000
     0.081255   -0.143310    4.323863
 H   O  
   8   4
Direct
  0.492733  0.086341  0.210973
  0.776549 -0.047377  0.370092
  0.638904  0.453289  0.722797
  0.775820  0.585063  1.026559
  0.149683  0.750467  0.214166
  0.281697  0.463104  0.366996
  0.144475 -0.050045  0.716850
  0.294953  0.248005  0.851000
  0.632851  0.124688  0.380776
  0.614505  0.618430  0.877999
  0.108701  0.606096  0.376991
  0.137948  0.094253  0.893749
EA872
 1.0000000000000000
     4.401000   -0.000000   -0.000000
    -0.000230    4.401000   -0.000000
     0.016107   -0.030301    4.213860
 H   O  
   8   4
Direct
  0.097597  0.474201  0.013695
  0.381925  0.340514  0.177900
  0.578557  0.840688  0.170098
  0.870330  0.991447  0.039194
  0.721111  0.333353  0.550998
  0.727699  0.680439  0.551166
  0.065690  0.987564  0.535288
  0.353246  0.832174  0.670475
  0.238988  0.509246  0.187672
  0.718532  1.008424  0.206824
  0.724114  0.507698  0.693570
  0.214324  1.001872  0.705101
EA611
 1.0000000000000000
     4.431000    0.000000    0.000000
    -0.001005    4.431000   -0.000000
     0.019299   -0.034240    4.156814
 H   O  
   8   4
Direct
  0.005355  0.655566  0.372220
  0.292811  0.807238  0.234417
 -0.000006  0.144895  0.565272
  0.150978  0.295812  0.859844
  0.519379  0.799730  0.737338
  0.809809  0.653874  0.871571
  0.651174  0.268994  0.030219
  0.645862  0.277490  0.396520
  0.153632  0.639841  0.199262
  0.170010  0.125757  0.711550
  0.655603  0.629040  0.707866
  0.648781  0.136907  0.216271
EA10
 1.0000000000000000
     3.008000   -0.000000   -0.000000
     0.000000    5.209000   -0.000000
     0.000000    0.000000    5.209000
 H   O  
   8   4
Direct
  0.248564  0.420167  0.488964
  0.688263  0.571392  0.495427
  0.183032  0.042575  0.002228
 -0.258326  0.193816  0.007247
  0.699037  0.548114  0.005686
  0.670726  0.784517 -0.167840
  0.033708  0.023569  0.654468
  0.031424  0.020083  0.357026
  0.568896  0.398410  0.491241
  0.062481  0.215561  0.007716
  0.541333  0.709747 -0.013776
  0.012797 -0.090813  0.507079
EA137
 1.0000000000000000
     4.338000   -0.000000    0.000000
    -0.004467    4.337998   -0.000000
     0.088618   -0.156217    4.336282
 H   O  
   8   4
Direct
  0.138913  0.654360  0.279511
  0.131049  0.302487  0.288652
  0.649852  0.642648  0.783750
  0.656723  0.290352  0.777733
  0.520209  0.119222  0.122333
  0.656234 -0.170503  0.267212
  0.150957  0.143109  0.779830
  0.150030 -0.209431  0.781803
 -0.003100  0.480998  0.274644
  0.513988  0.463676  0.787084
  0.485789 -0.024390  0.286917
  0.011277 -0.032972  0.777966
EA721
 1.0000000000000000
     4.424000    0.000000    0.000000
    -0.000463    4.424000   -0.000000
     0.021616   -0.040172    4.169750
 H   O  
   8   4
Direct
  0.023919  0.113688  0.229655
  0.014759  0.132387  0.594960
  0.481971  0.803323  0.412834
  0.481560  0.458115  0.413135
 -0.019575  0.802067  0.910928
 -0.019317  0.456897  0.913109
  0.518936  0.133189  0.731372
  0.517206  0.128205  1.096757
  0.155746  0.130494  0.415134
  0.617651  0.630555  0.412121
  0.116432  0.629620  0.911194
  0.654850  0.128740  0.914047
EA203
 1.0000000000000000
     4.413000   -0.000000   -0.000000
     0.000000    4.416000   -0.000000
     0.000000    0.000000    4.188000
 H   O  
   8   4
Direct
  0.351018  0.318472  0.910616
  0.648884  0.173272  1.030494
 -0.142066  0.319805  0.402777
  0.142964  0.160151  0.537008
  0.172845  0.693799  0.059696
 -0.173826  0.683813  0.053857
  0.504013  1.011956  0.409681
  0.499275  0.666029  0.410784
  0.511309  0.342498  1.068151
  0.008476  0.331540  0.572104
 -0.004739  0.824885  0.048901
  0.492861  0.839440  0.553167
EA776
 1.0000000000000000
     4.422000   -0.000000    0.000000
    -0.000232    4.422000    0.000000
     0.021850   -0.041076    4.172741
 H   O  
   8   4
Direct
  0.354338  0.326456  0.850939
  0.519473  0.604938  0.995199
  0.375794  0.974048  0.476255
  0.522710  1.121016  0.179748
  0.001106  0.825164  0.975650
 -0.131602  1.117427  0.831609
 -0.129549  0.324351  0.357212
  0.013448  0.623799  0.479690
  0.534921  0.450404  0.828105
  0.546288  0.955555  0.329374
  0.036284  0.975964  0.811344
  0.024056  0.474910  0.306611
EA851
 1.0000000000000000
     4.424000    0.000000    0.000000
    -0.000309    4.424000   -0.000000
     0.021548   -0.040401    4.170749
 H   O  
   8   4
Direct
  0.403206  0.642204  0.909447
  0.253570  0.933973  1.042759
  0.745485  0.437011  1.036391
  0.893328  0.292908  0.735549
  0.749464  0.935005  0.535010
  0.909379  0.798732  0.236362
  0.379986  0.290924  0.546057
  0.096944  0.445380  0.404942
  0.235439  0.780786  0.875424
  0.719518  0.276465  0.878309
  0.744988  0.763618  0.387144
  0.229626  0.271425  0.377937
EA225
 1.0000000000000000
     4.377000   -0.000000    0.000000
    -0.002445    4.376999   -0.000000
     0.047658   -0.084059    4.258904
 H   O  
   8   4
Direct
  0.573823  0.165208  0.091157
  0.285575  0.319881  0.234383
 -0.199265  0.680089  0.097799
  0.092628  0.816632  0.246966
  0.081232  0.162109  0.596675
 -0.206424  0.319273  0.738464
  0.454776  0.503981  0.593938
  0.612859  0.794127  0.728342
  0.426259  0.151106  0.262831
 -0.051054  0.647725  0.262429
 -0.072769  0.143740  0.761539
  0.447105  0.651516  0.767708
EA372
 1.0000000000000000
     4.338000   -0.000000   -0.000000
     0.000000    4.338000   -0.000000
     0.000000    0.000000    4.338000
 H   O  
   8   4
Direct
  0.663639  0.584203  0.015476
  0.510716  0.450509  0.308595
  0.001561  0.451443  0.490658
  0.152922  0.742287  0.631938
  0.342551  0.093402  0.485753
  0.630025 -0.066305  0.624565
 -0.177932 -0.026835  0.161755
  0.173495 -0.038549  0.144426
  0.497264  0.619729  0.161574
 -0.018946  0.599841  0.657985
  0.491205  0.107860  0.652721
  0.002560  0.106073  0.152636
EA766
 1.0000000000000000
     4.422000   -0.000000   -0.000000
    -0.000232    4.422000   -0.000000
     0.021850   -0.041221    4.172739
 H   O  
   8   4
Direct
  0.887881  0.466593  0.324513
  0.735025  0.752908  0.467124
  0.567603  0.112917  0.950312
  0.708121  0.266638  0.654465
  0.361700  0.281850  0.323222
  0.077651  0.125583  0.463553
  0.226354  0.760443  0.970980
  0.228265  0.756673  0.605663
  0.710876  0.596210  0.303981
  0.737199  0.099835  0.801325
  0.222526  0.114558  0.287706
  0.229033  0.622015  0.788675
EA843
 1.0000000000000000
     4.424000   -0.000000   -0.000000
    -0.000386    4.424000    0.000000
     0.021616   -0.040245    4.169750
 H   O  
   8   4
Direct
  0.022135  0.655374  0.471380
 -0.124343  0.946202  0.338840
  0.184762  0.807065  0.860636
  0.530458  0.798260  0.860059
  0.533394  0.323863  0.637290
  0.377910  0.471038  0.346301
  1.005312  0.456362  0.021435
  0.713606  0.310415  0.156207
 -0.139695  0.800534  0.511895
  0.356742  0.793185  1.003720
  0.361207  0.303474  0.494118
  0.867573  0.286726 -0.009746
EA643
 1.0000000000000000
     4.424000    0.000000   -0.000000
    -0.000463    4.424000   -0.000000
     0.021907   -0.040536    4.169745
 H   O  
   8   4
Direct
  0.563785  0.578255  0.898260
  0.423816  0.733411  0.603872
  0.732499  0.245492  0.100504
  0.594686  0.405832  0.397337
  1.075722  0.093946  0.580610
  1.082713  0.092032  0.946005
  1.081297  0.594172  0.080947
  1.074353  0.591487  0.446386
  0.594738  0.743449  0.749272
  0.561444  0.239357  0.247497
  1.075387  0.229910  0.765448
  1.082462  0.729715  0.266150
EA71
 1.0000000000000000
     4.869000   -0.000000   -0.000000
     0.000000    4.869000   -0.000000
     0.000000    0.000000    3.443000
 H   O  
   8   4
Direct
  0.425997  0.706150  0.741596
  0.110898  0.703212  0.721390
  0.118078  0.198151  0.241599
  0.277938  0.314718 -0.104099
  0.609030  0.399030  0.565808
  0.751806  0.142810  0.735863
  0.785102  0.639258  0.902218
  0.933939  0.896058  1.062307
  0.274178  0.662226  0.569091
  0.270893  0.157708  0.069568
  0.779116  0.294465  0.556380
  0.762466  0.794207  1.077174
EA349
 1.0000000000000000
     4.516000    0.000000    0.000000
     0.039882    4.515824    0.000000
    -0.033124   -0.039332    4.003670
 H   O  
   8   4
Direct
  0.135984 -0.040632  0.449718
 -0.006840  0.244039  0.306758
  0.480375  0.482364  0.297255
  0.633536  0.615707  0.608665
  0.139696  0.460528  0.940301
 -0.008744  0.746137  0.807306
  0.474265  0.009260  0.764330
  0.473194  0.010734  1.144041
 -0.032598  0.092890  0.475160
  0.471730  0.649777  0.451383
 -0.033598  0.587807  0.967164
  0.474241  0.144021  0.954953
EA835
 1.0000000000000000
     4.423000   -0.000000    0.000000
    -0.000386    4.423000    0.000000
     0.021694   -0.040619    4.170746
 H   O  
   8   4
Direct
  0.113731  0.266149 -0.083321
  0.274883  0.407252  0.209381
  0.920405  0.595250  1.041307
  0.635534  0.747136  0.901937
  0.768716  0.114058  0.408541
  0.625520  0.406777  0.546270
  0.128148  0.602295  0.580002
  0.271113  0.894149  0.717978
  0.281890  0.236422  0.061357
  0.784420  0.766851  1.071938
  0.794633  0.269089  0.573202
  0.299146  0.738606  0.554033
EA653
 1.0000000000000000
     4.422000   -0.000000    0.000000
    -0.000154    4.422000    0.000000
     0.021704   -0.041222    4.172740
 H   O  
   8   4
Direct
  0.387342  0.320678  0.461788
  0.407663  0.665994  0.467774
  0.899769  0.323702  0.970510
  0.907985  0.669097  0.968703
  0.889714  0.847111  0.485543
  0.735138  1.133760  0.351287
  0.388723  0.846159  0.981862
  0.235218  1.134089  0.849553
  0.406566  0.493784  0.321307
  0.907657  0.494344  0.825630
  0.904796  0.996595  0.315994
  0.403297  0.995548  0.812201
EA757
 1.0000000000000000
     4.419000    0.000000    0.000000
    -0.000309    4.419000    0.000000
     0.021006   -0.039530    4.178760
 H   O  
   8   4
Direct
  0.741975  0.232855  0.774300
  0.584266  0.368285  0.479286
  0.568122  0.533880 -0.014966
  0.570518  0.879953 -0.011527
  0.083040  1.087348 -0.052822
  0.085622  1.097137  0.311692
  0.064682  0.576280  0.463237
 -0.096791  0.858415  0.604222
  0.571822  0.202472  0.630797
  0.573329  0.706799  0.130533
  0.072061  1.228378  0.126722
  0.082883  0.733065  0.627203
EA28
 1.0000000000000000
     4.320000   -0.000000   -0.000000
     0.000000    4.320000   -0.000000
     0.000000    0.000000    4.373000
 H   O  
   8   4
Direct
  0.586693  0.790489  0.493958
  0.940628  0.783684  0.498394
  0.084410  0.283743  0.500076
  0.438338  0.283867  0.500087
  0.584412  0.283909  0.999878
  0.938354  0.283644  0.999935
  0.087624  0.784514  0.997357
  0.441532  0.784514  0.997090
  0.765346  0.784855  0.358069
  0.261396  0.284014  0.361833
  0.761424  0.284132  0.861656
  0.264438  0.784801  0.858998
EA458
 1.0000000000000000
     4.420000   -0.000000    0.000000
     0.000309    4.420000   -0.000000
     0.020918   -0.040889    4.175747
 H   O  
   8   4
Direct
  0.394301  0.079097  0.614445
  0.241381 -0.060348  0.912042
  0.400000  0.553589  0.084158
  0.397729  0.558662  0.449210
  0.896074  0.289006  0.577384
  0.896628  0.291078  0.942611
  0.893808  0.787875  0.077842
  0.900043  0.795157  0.442884
  0.410512 -0.087345  0.764628
  0.393399  0.419572  0.267663
  0.894320  0.426911  0.760458
  0.902539  0.928388  0.258338
EA462
 1.0000000000000000
     4.431000    0.000000    0.000000
    -0.000851    4.431000   -0.000000
     0.018787   -0.033435    4.155823
 H   O  
   8   4
Direct
  0.418187  0.779422  0.233323
  0.416293  0.772577 -0.133951
 -0.086386  0.784028  0.370142
 -0.083497  0.780095  0.736604
 -0.076353  0.258617  0.900484
  0.072726  0.404888  1.198468
  0.411708  0.276666  0.730790
  0.419406  0.270666  0.364263
  0.418995  0.912472  0.047845
 -0.079739  0.918276  0.556206
 -0.094550  0.427936  1.049925
  0.410566  0.410252  0.545820
EA548
 1.0000000000000000
     4.419000    0.000000    0.000000
     0.004473    4.418998    0.000000
     0.018380   -0.047646    4.178688
 H   O  
   8   4
Direct
  0.258795  0.746965  0.519516
  0.409932  0.599011  0.222488
  0.898323  0.101772  0.524924
  0.607070  0.253743  0.397173
  0.892459  0.601527  1.035720
  0.611670  0.760008  0.891531
  0.075493  1.082479  1.005120
  0.421122  1.093654  1.008593
  0.242232  0.576047  0.371799
  0.748452  0.088454  0.354947
  0.742796  0.584115  0.866025
  0.250365  1.083305  0.863102
EA704
 1.0000000000000000
     4.401000    0.000000   -0.000000
    -0.000307    4.401000    0.000000
     0.016405   -0.030381    4.214859
 H   O  
   8   4
Direct
  0.892596  0.488678  0.512263
  0.605640  0.637444  0.370209
  0.258840  0.312913  0.699321
  0.391336  0.614379  0.829796
  0.088865 -0.175688  0.326814
  0.228462  0.121660  0.197734
  0.731546  0.108828  0.657805
  0.732854  0.110194  1.019933
  0.749031  0.471320  0.338046
  0.225924  0.469809  0.859720
  0.255431 -0.032891  0.359465
  0.723866 -0.027591  0.838554
EA688
 1.0000000000000000
     4.420000    0.000000    0.000000
    -0.000154    4.420000   -0.000000
     0.022818   -0.043084    4.176715
 H   O  
   8   4
Direct
  0.650002  0.430878  0.298972
  0.943642  0.563999  0.442674
  0.814769  0.956870  0.605308
  0.820703  0.950919  0.970139
  0.315375  0.955254  0.103364
  0.318743  0.950986  0.468277
  0.160801  0.423984  0.805506
  0.449987  0.574016  0.939824
  0.790742  0.599233  0.280482
  0.832062  1.089664  0.791522
  0.328335  1.089250  0.289051
  0.293886  0.597340  0.778648
EA253
 1.0000000000000000
     4.426000    0.000000    0.000000
     0.022634    4.425942    0.000000
    -0.021309   -0.021200    4.166892
 H   O  
   8   4
Direct
  0.679629  0.550455  0.996937
  0.535184  0.706664  0.703259
  0.331749  0.549726  0.327661
  0.046011  0.706023  0.191240
  0.535697  0.213703  0.523367
  0.530120  0.205897  0.157465
  0.035294  0.213957  0.657699
  0.035881  0.212976  1.023838
  0.706213  0.718193  0.850184
  0.195518  0.719833  0.362511
  0.669385  0.215670  0.338478
  0.172412  0.211878  0.841262
EA592
 1.0000000000000000
     4.420000    0.000000   -0.000000
     0.001697    4.420000   -0.000000
     0.020126   -0.043248    4.177728
 H   O  
   8   4
Direct
  0.548213  0.810968  0.294817
  0.558979  1.157233  0.294843
  0.380630  0.474437  0.510488
  0.530927  0.318045  0.798543
  1.198452  0.506035 -0.003118
  0.907908  0.657744  0.131883
  1.193953  0.002755  0.494829
  0.907412  0.158898  0.633444
  0.544539  0.983091  0.151583
  0.554704  0.486216  0.651687
  1.047429  0.490568  0.166742
  1.044011 -0.011003  0.665683
EA589
 1.0000000000000000
     4.417000   -0.000000   -0.000000
     0.000540    4.417000   -0.000000
     0.024883   -0.049112    4.180637
 H   O  
   8   4
Direct
  0.216286  0.191878  0.361307
  0.366426  0.473858  0.514599
  0.069811  0.704168  0.002868
  0.204726  0.998291 -0.136474
  0.564178  0.842097  0.367446
  0.850464  0.988668  0.513277
  0.568465  0.197049  0.011406
  0.709247  0.487458 -0.128805
  0.193903  0.337618  0.535642
  0.234194  0.849552  0.029976
  0.712540  0.817698  0.535807
  0.732288  0.342068  0.041888
EA350
 1.0000000000000000
     4.573000   -0.000000   -0.000000
     0.032005    4.572888   -0.000000
    -0.025954   -0.029792    3.902800
 H   O  
   8   4
Direct
  0.689584  0.222614  0.461283
  0.973906  0.080329  0.599535
  0.478778  0.374765  0.075596
  0.331192  0.087181 -0.043790
  0.164917  0.573230  0.597884
  0.438545  0.721806  0.448547
  0.799295  0.895819 -0.043409
  0.941914  0.737984  0.261998
  0.845324  0.248695  0.629388
  0.330451  0.233506  0.138241
  0.281883  0.749956  0.613055
  0.777062  0.726897  0.103947
EA489
 1.0000000000000000
     4.430000    0.000000    0.000000
     0.001392    4.430000   -0.000000
     0.015309   -0.032871    4.156842
 H   O  
   8   4
Direct
  0.286884  0.526857  0.219950
  0.419739  0.817316  0.372837
  0.741999  0.478936  1.028296
  0.744720  0.823779  1.024449
  0.264620  0.010584  1.024681
  0.411404  0.158747  0.727389
  0.882438  0.159562  0.566749
  0.893431  0.156967  0.200846
  0.248506  0.680101  0.384050
  0.744155  0.648964  0.881892
  0.244925  0.180645  0.879382
  0.751577  0.149194  0.379499
EA524
 1.0000000000000000
     4.412000   -0.000000    0.000000
    -0.001694    4.412000    0.000000
     0.033736   -0.059701    4.192439
 H   O  
   8   4
Direct
  0.235547  0.500102  0.964617
  0.526577  0.349571  0.828296
  0.235679  1.014255  0.473752
  0.524284  0.862385  0.331457
  0.721191  0.515010  0.454870
  0.870724  0.370669  0.156032
  0.883145 -0.106965  0.993211
  0.876273 -0.107725  0.630087
  0.385974  0.515905  0.794544
  0.382659  1.028413  0.300015
  0.887383  0.541298  0.304349
  0.879659  0.029500  0.813381
EA736
 1.0000000000000000
     4.422000   -0.000000   -0.000000
    -0.000232    4.422000   -0.000000
     0.021850   -0.041221    4.172739
 H   O  
   8   4
Direct
  0.158749  0.335496  0.165321
 -0.129050  0.188363  0.307453
  0.638341  0.689980  0.307150
  0.352517  0.837994  0.164640
  0.139570  0.686805  0.806648
 -0.144881  0.841613  0.669015
  0.653561  0.342219  0.670892
  0.368748  0.184326  0.806325
  0.022345  0.164684  0.139186
  0.487484  0.665639  0.139934
 -0.012910  0.667429  0.640413
  0.523000  0.167492  0.640154
EA844
 1.0000000000000000
     4.423000    0.000000    0.000000
    -0.000154    4.423000    0.000000
     0.021408   -0.040484    4.171749
 H   O  
   8   4
Direct
  0.235891  0.519042  0.946411
  0.372473  0.804696  0.790795
  0.728414  0.043298  0.924723
  0.872968  0.333766  0.786046
  0.227503  0.174118  0.599933
  0.383284  0.317264  0.306084
  0.880557  0.524663  0.290775
  0.723936  0.810481  0.428896
  0.399849  0.665029  0.967060
  0.896679  0.183820  0.952904
  0.392181  0.143730  0.447627
  0.895075  0.676050  0.460619
EA46
 1.0000000000000000
     4.530000   -0.000000   -0.000000
     0.000000    4.530000   -0.000000
     0.000000    0.000000    3.977000
 H   O  
   8   4
Direct
  0.094804  0.006906  0.489967
  0.085345  0.344731  0.484915
  0.757204  0.842762  0.318656
  0.611001  0.557035  0.186021
  0.419934  0.196696  0.991700
  0.758225  0.195696  0.991260
  0.222477  0.688583  1.041973
  0.236774  0.682816  0.660673
  0.086053  0.173734  0.336954
  0.588086  0.713361  0.351571
  0.589149  0.214391  0.842698
  0.096144  0.677607  0.844611
EA615
 1.0000000000000000
     4.419000    0.000000    0.000000
    -0.000154    4.419000   -0.000000
     0.023340   -0.044198    4.178701
 H   O  
   8   4
Direct
  0.694321  0.956667  0.128210
  0.986495  0.823255  0.272195
  0.193364  0.975311  0.625865
  0.477833  0.820161  0.762878
  0.182611  0.320318  0.261310
  0.467215  0.478858  0.125956
  0.679836  0.319687  0.760375
  0.965360  0.476650  0.624532
  0.847726  0.993424  0.290272
  0.344562  0.993233  0.793371
  0.313912  0.494545  0.293195
  0.810282  0.494982  0.789689
EA717
 1.0000000000000000
     4.422000   -0.000000   -0.000000
    -0.000232    4.422000   -0.000000
     0.021850   -0.041221    4.172739
 H   O  
   8   4
Direct
  0.155606  0.393176  0.219759
 -0.132708  0.237182  0.349356
  0.639842  0.739509  0.344937
  0.355118  0.895008  0.209407
  0.134078  0.749733  0.848273
 -0.152804  0.892630  0.702229
  0.649534  0.395186  0.710158
  0.365539  0.237163  0.847257
  0.023441  0.220174  0.185176
  0.487282  0.721345  0.178738
 -0.015932  0.721370  0.680884
  0.518351  0.220873  0.679493
EA754
 1.0000000000000000
     4.423000   -0.000000   -0.000000
    -0.000386    4.423000    0.000000
     0.021616   -0.040391    4.169748
 H   O  
   8   4
Direct
  0.178940  0.615952  1.023809
 -0.101925  0.777117  0.886870
  0.692011  0.623091  0.527404
  0.404417  0.765870  0.382820
  0.668373  0.271994  0.880731
  0.382643  0.119848  1.022051
  0.173202  0.279524  0.384154
 -0.110607  0.120084  0.519340
  0.050382  0.792377  1.053753
  0.555556  0.794567  0.549096
  0.515142  0.293874  1.047502
  0.020185  0.294282  0.551856
EA551
 1.0000000000000000
     4.833000   -0.000000   -0.000000
     0.000000    4.833000    0.000000
     2.352940   -2.353528    3.494975
 H   O  
   8   4
Direct
  0.333449  0.400525  0.446172
  0.422781  0.691717  0.676737
  0.924850  0.872566  0.341028
  0.921855  1.188467  0.656741
  0.665540  0.622465  0.849058
  0.665489  0.939323  1.160848
  0.166113  0.123416 -0.148005
  0.168150  0.438812  0.163308
  0.492017  0.449804  0.518253
  1.007719  0.946531  0.503876
  0.754406  0.697391  1.005822
  0.247196  0.196907  0.016642
EA887
 1.0000000000000000
     4.420000   -0.000000   -0.000000
     0.000077    4.420000    0.000000
     0.021137   -0.040670    4.175748
 H   O  
   8   4
Direct
  0.501210  0.030216  0.302467
  0.348273  0.321073  0.437627
  0.857392  0.295292  0.619275
  0.993732  0.008497  0.772093
  0.836661  0.815470  0.435844
  0.987583  0.677473  0.133486
  0.486127  0.814869  0.790726
  0.355779  0.520672  0.933704
  0.336669  0.172367  0.264486
  0.822284  0.146119  0.785515
  0.821577  0.648177  0.284119
  0.318126  0.673343  0.772461
EA467
 1.0000000000000000
     4.425000   -0.000000    0.000000
     0.021625    4.424947   -0.000000
    -0.010691   -0.038930    4.166804
 H   O  
   8   4
Direct
  0.069363  0.599598  0.783744
  0.071387  0.601928  0.417934
  0.231967  0.127816  0.082630
 -0.058352 -0.018098 -0.054198
  0.728910  0.128996  0.579972
  0.440844 -0.023141  0.445476
  0.576264  0.595850  0.283820
  0.571443  0.601692 -0.081991
  0.058458  0.464880  0.598238
  0.097826 -0.043973  0.108036
  0.597590 -0.044620  0.607811
  0.560425  0.463110  0.097133
EA494
 1.0000000000000000
     4.421000    0.000000   -0.000000
     0.009645    4.420989    0.000000
     0.009912   -0.045574    4.175740
 H   O  
   8   4
Direct
  0.014629  0.276925  0.946254
  0.361092  0.276048  0.944269
  0.172035  0.908393  0.466273
  0.030494  0.618347  0.322112
  0.519764  0.913221  0.791521
  0.681274  0.627959  0.658873
  0.525885  0.426519  0.291561
  0.668766  0.129401  0.160994
  0.187324  0.250394  0.803894
  0.198450  0.757829  0.297024
  0.691563  0.780212  0.828159
  0.698729  0.292450  0.315675
EA719
 1.0000000000000000
     4.414000   -0.000000   -0.000000
    -0.000308    4.414000    0.000000
     0.019594   -0.036700    4.188793
 H   O  
   8   4
Direct
  0.140792  0.755236  0.362093
  0.005613  0.607442  0.664153
  0.347889  0.103506  0.497206
  0.640209  0.248896  0.361022
 -0.001224  0.121893  0.858118
  0.153338  0.407133  1.000061
  0.644278  0.753019 -0.130065
  0.509780  0.595029  0.166966
 -0.015283  0.781388  0.524510
  0.488629  0.271111  0.528776
 -0.020345  0.273700  1.026488
  0.473180  0.758262  0.017387
EA684
 1.0000000000000000
     4.425000    0.000000    0.000000
    -0.000541    4.425000    0.000000
     0.021460   -0.039570    4.167757
 H   O  
   8   4
Direct
  0.084376  0.688343  1.049013
 -0.198391  0.825218  0.889694
  0.610804  0.328197  0.899345
  0.327674  0.168669  1.035408
  0.123421  0.323290  0.394026
 -0.165511  0.181997  0.539695
  0.601494  0.667852  0.536347
  0.318672  0.826897  0.401926
 -0.059492  0.655309  0.876428
  0.478782  0.155320  0.865708
 -0.012468  0.151501  0.374297
  0.449154  0.652502  0.369580
EA264
 1.0000000000000000
     4.404000   -0.000000   -0.000000
     0.029208    4.403903    0.000000
    -0.005877   -0.069821    4.208417
 H   O  
   8   4
Direct
  0.602098  0.223754  0.042463
  0.457462  0.062847  0.328802
  0.098625  0.227026  0.541345
 -0.043054  0.064059  0.828151
  0.602484  0.388142  0.540945
  0.457063  0.549792  0.832993
  1.101707  0.390663  0.039809
  0.956686  0.551506  0.332525
  0.628225  0.051765  0.182434
  0.127140  0.055001  0.680941
  0.627556  0.559932  0.686774
  1.126904  0.562146  0.186000
EA238
 1.0000000000000000
     4.413000    0.000000    0.000000
    -0.055377    4.412653    0.000000
     0.002635   -0.116027    4.191394
 H   O  
   8   4
Direct
  0.467933  0.367018  0.231495
  0.607592  0.667694  0.364492
 -0.043688 -0.124677  0.233187
  0.103224  0.171896  0.368520
  1.122578  0.342254  0.851906
  1.114733  0.688197  0.852489
  0.763569  1.002601  0.859859
  0.471138  0.846441  0.730015
  0.632661  0.512000  0.198596
  0.116658  0.023347  0.193691
  1.124715  0.512014  0.709184
  0.608556  1.016775  0.696044
EA233
 1.0000000000000000
     4.371000    0.000000   -0.000000
    -0.002518    4.371999    0.000000
     0.048687   -0.085934    4.270858
 H   O  
   8   4
Direct
  0.543315  0.392220  0.486365
  0.549020  0.380800  0.843761
  0.571340  0.871567  0.312513
  0.420405  0.738755  0.013962
 -0.063166  1.019591  0.496206
  0.071999  0.733938  0.651906
  0.049894  0.380601 -0.011743
  0.051844  0.386425  0.345562
  0.408930  0.401587  0.669519
  0.406435  0.906459  0.166333
 -0.100002  0.875162  0.662907
 -0.087042  0.372707  0.169111
EA656
 1.0000000000000000
     4.410000   -0.000000    0.000000
     0.000693    4.410000   -0.000000
     0.020798   -0.041819    4.195740
 H   O  
   8   4
Direct
  0.559985  0.111352  0.541979
  0.710790  0.273720  0.828096
  0.587181  0.598298  0.019201
  0.868969  0.439831  0.163204
  0.077181  0.628561  0.831168
  0.225471  0.768935  0.533080
  0.382551  0.116324  0.043328
  0.240982  0.276499  0.337660
  0.725653  0.093876  0.693153
  0.740686  0.618852  0.183622
  0.247568  0.604982  0.684731
  0.213973  0.104894  0.193519
EA821
 1.0000000000000000
     4.423000   -0.000000    0.000000
    -0.000386    4.423000    0.000000
     0.021694   -0.040546    4.170747
 H   O  
   8   4
Direct
  0.843804  0.307955 -0.029987
  0.997565  0.461167  0.260042
  0.351792  0.153369  0.586946
  0.498890  0.448567  0.466185
  0.339404  0.648315  0.086804
  0.489801  0.941212 -0.038026
  0.849957  0.658942  0.644729
  1.000766  0.952683  0.769181
  1.017157  0.291908  0.110951
  0.511222  0.298866  0.635062
  0.508261  0.785409  0.124098
  1.008537  0.804752  0.595274
EA201
 1.0000000000000000
     4.338000    0.000000   -0.000000
    -0.004088    4.337998    0.000000
     0.081726   -0.144119    4.336836
 H   O  
   8   4
Direct
  0.210522  0.645774  0.551802
  0.354845  0.788054  0.260279
  0.389177  0.272052  1.073502
  0.374904  0.263372  0.721641
  0.741533  0.137757  0.552786
  1.030584  0.285985  0.405050
  0.736353  0.806588  0.891039
  0.743212  0.454813  0.896870
  0.376726  0.617996  0.400020
  0.395850  0.129704  0.895958
  0.884565  0.117432  0.377881
  0.878320  0.633461  0.890364
EA823
 1.0000000000000000
     4.423000    0.000000   -0.000000
    -0.000232    4.423000   -0.000000
     0.021548   -0.040619    4.170747
 H   O  
   8   4
Direct
  0.667924  0.915138  0.820586
  0.524643  0.619334  0.946078
  0.687067  0.099464  0.312081
  0.539371  0.392065  0.445048
  0.055157  0.912065  0.454081
  0.346325  0.767993  0.313866
  0.373648  0.254212  0.824929
  0.028298  0.262540  0.824702
  0.691163  0.759443  0.981642
  0.704586  0.250670  0.481470
  0.190710  0.739768  0.476217
  0.200377  0.268381  0.968364
EA789
 1.0000000000000000
     4.415000    0.000000    0.000000
    -0.000385    4.415000   -0.000000
     0.019585   -0.036390    4.186796
 H   O  
   8   4
Direct
  0.325345  0.866881  0.377837
  0.616299  1.015959  0.242818
  0.956543  0.866223  1.051983
  0.795251  1.010062  0.762808
  0.979106  0.394584  0.585688
  0.969759  0.394633  0.221958
  0.628137  0.517828  0.756257
  0.480899  0.369342  1.052518
  0.464648  1.035438  0.411131
  0.965533  1.037455  0.907010
  0.973323  0.531633  0.404941
  0.458043  0.536328  0.904037
EA740
 1.0000000000000000
     4.422000   -0.000000   -0.000000
    -0.000232    4.422000   -0.000000
     0.021850   -0.041221    4.172739
 H   O  
   8   4
Direct
  0.591606  0.639595  0.764781
  0.745173  0.504118  1.062200
  0.256182  0.646684  0.417248
 -0.089365  0.651807  0.424231
  0.444495 -0.004634  0.609606
  0.455917  0.001502  0.244025
  0.948249  0.003133  0.111573
  0.949092  0.001801 -0.253938
  0.574981  0.476158  0.918061
  0.081167  0.513479  0.412468
  0.585536 -0.020043  0.430406
  1.085294  0.010470 -0.071540
EA86
 1.0000000000000000
     4.338000   -0.000000   -0.000000
     0.000000    4.338000   -0.000000
     0.000000    0.000000    4.338000
 H   O  
   8   4
Direct
 -0.091112 -0.035622 -0.165921
  0.047051 -0.327253 -0.013370
  0.419192  0.816215  0.144904
  0.416638  0.817562  0.496598
  0.049035  0.488754  0.469235
 -0.102772  0.341606  0.181644
  0.562485  0.172994  1.001310
  0.568726  0.177109  0.649029
  0.074786 -0.185417 -0.185045
  0.556370  0.826888  0.321935
  0.071124  0.321391  0.321614
  0.576186  0.313117  0.827198
EA809
 1.0000000000000000
     4.421000    0.000000    0.000000
    -0.000386    4.421000    0.000000
     0.021345   -0.039992    4.173754
 H   O  
   8   4
Direct
  0.314945  0.757722  0.390626
  0.481041  0.902331  0.679300
  0.871540  0.249915  0.343487
  0.872595  0.246135  0.708552
  0.844588  0.575656  0.033739
  0.843906  0.921361  0.033256
  0.372881  0.243459  0.206577
  0.374404  0.261637 -0.158169
  0.489287  0.732658  0.529407
  1.008904  0.250191  0.525021
  0.980233  0.748995  0.039956
  0.510302  0.244730  0.023597
EA159
 1.0000000000000000
     4.420000   -0.000000   -0.000000
     0.000000    4.420000   -0.000000
     0.000000    0.000000    4.178000
 H   O  
   8   4
Direct
  0.550708  0.808404  0.031840
  0.690067  0.650437  0.326702
  0.557538  0.470247  0.667082
  0.847607  0.327680  0.523635
  0.050428  0.955114  0.698564
  0.191845  0.664275  0.838567
  0.018615  0.317488  0.034883
  0.364766  0.308533  0.043107
  0.715894  0.823233  0.184724
  0.695276  0.299313  0.689101
  0.222219  0.818130  0.675456
  0.188862  0.328402  0.181566
EA385
 1.0000000000000000
     4.434000   -0.000000    0.000000
     0.005649    4.433996   -0.000000
     0.005215   -0.025430    4.149919
 H   O  
   8   4
Direct
  0.671502 -0.024738  0.699618
  0.684876 -0.014597  0.332893
  0.048911  0.601642  0.674087
  0.337715  0.451616  0.538695
  0.549726  0.600793  0.174780
  0.838524  0.451536  0.038198
  0.179114 -0.020983  0.201559
  0.182282 -0.016591 -0.165647
  0.665637  0.115916  0.521121
  0.205528  0.625054  0.511923
  0.705508  0.624405  0.011726
  0.167677  0.116765  0.020747
EA185
 1.0000000000000000
     4.338000   -0.000000    0.000000
    -0.004467    4.337998   -0.000000
     0.088618   -0.156217    4.336282
 H   O  
   8   4
Direct
  0.185439  0.644696  0.194767
  0.038590  0.361953  0.348803
  0.663447  0.691349  0.680992
  0.658769  0.339144  0.691128
  0.342424  0.016519  0.047704
  0.694997  0.006710  0.042635
  0.167664  0.193686  0.692245
  0.158487 -0.158860  0.687419
  0.013356  0.501090  0.179876
  0.522285  0.516313  0.679557
  0.517258 -0.006826  0.181807
  0.023961  0.021146  0.692169
EA400
 1.0000000000000000
     4.419000    0.000000   -0.000000
     0.008330    4.418992    0.000000
     0.010503   -0.043052    4.178765
 H   O  
   8   4
Direct
  0.329449  0.417992  0.321134
  0.326534  0.418666  0.685951
  0.832991 -0.095879  0.349961
  0.550140 -0.256074  0.486801
  0.851817  0.401503  0.152491
  0.697507  0.254693 -0.141834
  0.318409  0.919825  0.831573
  0.319255  0.921627  1.196224
  0.191595  0.418083  0.502374
  0.678547 -0.079028  0.515863
  0.681200  0.424086  0.007533
  0.182102  0.916865  1.014613
EA488
 1.0000000000000000
     4.443000    0.000000    0.000000
     0.020239    4.442954    0.000000
    -0.006422   -0.042396    4.133778
 H   O  
   8   4
Direct
  0.751044  0.679123  0.639251
  0.406858  0.678740  0.628152
 -0.082532  0.826396  0.280504
  0.071188  0.683714 -0.018313
  0.212731  0.335996  0.450712
  0.210120  0.321090  0.819313
  0.712226  0.322997  0.948922
  0.713922  0.320699  1.317647
  0.578591  0.813802  0.625955
  0.087393  0.850094  0.135092
  0.076770  0.348776  0.634915
  0.577147  0.312590  1.133602
EA335
 1.0000000000000000
     4.416000   -0.000000   -0.000000
     0.055877    4.415646    0.000000
    -0.052370   -0.053464    4.184331
 H   O  
   8   4
Direct
  0.455819  0.250257  0.908062
  0.166395  0.406564  0.772578
  0.443971  0.759896  0.401257
  0.152776  0.914801  0.267773
  0.624409  0.244483  0.389435
  0.970240  0.254856  0.395496
  0.635509  0.885602  0.768942
  0.783018  0.596364  0.910371
  0.302507  0.233538  0.739827
  0.289227  0.742518  0.234325
  0.797734  0.254145  0.249018
  0.802898  0.742585  0.739965
EA814
 1.0000000000000000
     4.422000   -0.000000    0.000000
    -0.000232    4.422000    0.000000
     0.021709   -0.040940    4.173743
 H   O  
   8   4
Direct
  0.890181  0.536193  0.465610
  0.737798  0.392577  0.760936
  1.025763 -0.095056 -0.035060
  0.734356  0.040448  0.113151
  0.569281  0.522541  0.146637
  0.405891  0.241258  0.283069
  0.374741  0.750214  0.434990
  0.391569  0.752263  0.799868
  0.910029  0.371450  0.616570
  0.876989 -0.126075  0.134127
  0.401028  0.385613  0.108152
  0.372939  0.887606  0.618652
EA850
 1.0000000000000000
     4.410000   -0.000000   -0.000000
    -0.000308    4.410000    0.000000
     0.018670   -0.034996    4.194812
 H   O  
   8   4
Direct
  0.098225  0.322183  0.079821
  0.393160  0.171562 -0.043887
  0.239836  0.489210  0.467117
  0.232374  0.835681  0.468222
  0.585558  0.181795  0.454184
  0.875079  0.336478  0.585860
  0.752881  0.518966 -0.047400
  0.914601  0.804193  0.087425
  0.239393  0.157334  0.122091
  0.229130  0.663039  0.610624
  0.734373  0.170451  0.624314
  0.744110  0.668232  0.124123
EA522
 1.0000000000000000
     4.419000    0.000000    0.000000
     0.004705    4.418997    0.000000
     0.018234   -0.047792    4.178687
 H   O  
   8   4
Direct
  0.516668  0.618532  0.941427
  0.664581  0.470420  0.643129
  0.022696  0.310296  0.459207
  0.180654  0.595918  0.326233
  0.371372  0.122620  0.317477
  0.657569 -0.031999  0.453041
  0.853788 -0.024763 -0.045052
  1.145310  0.126543 -0.174516
  0.496630  0.449006  0.792762
  0.007980  0.462316  0.293660
  0.505491 -0.050812  0.286343
  1.003211 -0.037354 -0.216492
EA784
 1.0000000000000000
     4.423000    0.000000    0.000000
    -0.000463    4.423000   -0.000000
     0.021402   -0.039672    4.170756
 H   O  
   8   4
Direct
  0.686263  1.009361  0.574053
  0.523391  0.726741  0.438104
  0.675035  0.525017  0.069361
  0.536284  0.226667 -0.061261
  0.174095 -0.146593 -0.054484
  0.030208 -0.304122  0.238165
  0.184557  0.372373  0.727829
 -0.161307  0.380054  0.718392
  0.515143  0.875455  0.611255
  0.502481  0.390318  0.091860
  0.002547 -0.136278  0.091934
  0.015393  0.356028  0.580516
EA361
 1.0000000000000000
     4.408000    0.000000   -0.000000
     0.051237    4.407702    0.000000
    -0.040996   -0.063403    4.201322
 H   O  
   8   4
Direct
  0.649046 -0.039600  1.070711
  0.363311  0.115807  0.926654
  0.668421  0.470145  0.568877
  0.377968  0.625378  0.433796
 -0.133874  0.475470  1.070407
  0.155528  0.613859  0.927840
 -0.157738  0.964263  0.553545
 -0.006733  1.116599  0.266280
  0.501390 -0.056030  0.897404
  0.519675  0.457613  0.396354
  0.018193  0.442823  0.906862
  0.012732  0.945013  0.408514
EA497
 1.0000000000000000
     4.427000    0.000000    0.000000
     0.003477    4.426999   -0.000000
     0.016057   -0.040192    4.162775
 H   O  
   8   4
Direct
  0.146248  1.063599  0.764230
  0.151076  1.064486  1.130105
  0.140630  0.557575  0.260348
  0.152024  0.568239  0.626501
  0.630636  0.811207  0.579456
  0.486228  1.101851  0.445823
  0.631660  0.311324  0.079429
  0.485700  0.601605 -0.053370
  0.150947  0.927258  0.946211
  0.151887  0.426524  0.446477
  0.656181  0.964961  0.416141
  0.656227  0.465477 -0.083651
EA229
 1.0000000000000000
     4.339000   -0.000000    0.000000
     0.101999    4.337801   -0.000000
    -0.073926   -0.153932    4.336639
 H   O  
   8   4
Direct
  0.672961  0.402924  0.868021
  0.963454  0.265173  1.027461
  0.839482  0.896817  0.212878
  0.978600  0.755894  0.508120
  0.337745  0.619684  1.017829
  0.487521  0.896328  0.867299
  0.344691  0.117070  0.511285
  0.478131  0.407622  0.370696
  0.814861  0.225598  0.861774
  0.806885  0.738780  0.362033
  0.320787  0.751605  0.840911
  0.308000  0.265976  0.350863
EA365
 1.0000000000000000
     4.419000    0.000000   -0.000000
     0.004473    4.418998    0.000000
     0.014879   -0.040859    4.178774
 H   O  
   8   4
Direct
  0.409331  0.656596  0.624299
  0.552260  0.369093  0.473692
  1.023338  0.024451  0.644305
  1.024215  0.026338  0.279134
  1.030743  0.521964  1.139532
  1.028477  0.521067  0.774857
  0.526558  0.011456  1.143397
  0.527127  0.022742  0.778947
  0.382250  0.507882  0.453716
  0.887063  0.034504  0.461995
  0.893145  0.526534  0.958769
  0.390346  0.006226  0.960837
EA186
 1.0000000000000000
     4.338000   -0.000000    0.000000
    -0.004467    4.337998   -0.000000
     0.088618   -0.156217    4.336282
 H   O  
   8   4
Direct
  0.092702  0.617156  0.360392
  0.248778  0.324387  0.216720
  0.725140  0.646136  0.692374
  0.716607  0.294193  0.700654
  0.396399 -0.034514  0.052224
  0.748417 -0.027908  0.051787
  0.102092  0.102331  0.533335
  0.243137 -0.180917  0.686444
  0.072753  0.459973  0.196431
  0.582494  0.473136  0.688905
  0.569979 -0.027039  0.190825
  0.072857 -0.034660  0.704758
EA475
 1.0000000000000000
     4.420000    0.000000   -0.000000
     0.000231    4.420000    0.000000
     0.021069   -0.040899    4.176747
 H   O  
   8   4
Direct
  0.288493  0.383651  0.751545
  0.434749  0.226464  1.041514
  0.791723  0.873990  0.751471
  0.940276  0.726163  1.045511
  1.089078  0.556579  0.422762
  0.802207  0.407751  0.566181
  0.589316  1.056694  0.422963
  0.302423  0.907333  0.565620
  0.458045  0.398182  0.899025
  0.959920  0.895804  0.899782
  0.951041  0.386320  0.395163
  0.451400  0.886438  0.394681
EA532
 1.0000000000000000
     4.419000   -0.000000   -0.000000
     0.001080    4.419000    0.000000
     0.021438   -0.043829    4.177715
 H   O  
   8   4
Direct
  0.744776  0.587342  0.411076
  0.880345  0.886355  0.284907
  0.895352  0.075149  0.799139
  1.036543  0.371499  0.928105
  0.569808  0.080049  0.451941
  0.223822  0.087663  0.453154
  0.519679  0.547370  0.970528
  0.235049  0.704870  1.111727
  0.898621  0.740208  0.456056
  0.869407  0.231739  0.962063
  0.399923  0.219728  0.443692
  0.374790  0.708407  0.931098
EA431
 1.0000000000000000
     4.421000   -0.000000    0.000000
     0.002392    4.420999    0.000000
     0.017415   -0.039940    4.174773
 H   O  
   8   4
Direct
  0.904671  0.227951  0.947743
  0.619812  0.380790  0.806723
  0.272031  0.863310  0.633495
  0.424631  0.724071  0.929451
  0.274420  0.364357  0.135811
  0.424814  0.223603  0.432392
  0.907520  0.724539  0.441510
  0.621466  0.880938  0.307016
  0.761146  0.214665  0.771596
  0.256463  0.696295  0.782854
  0.257063  0.197266  0.284930
  0.761443  0.714412  0.267644
EA678
 1.0000000000000000
     4.374000    0.000000    0.000000
    -0.000153    4.374000   -0.000000
     0.012729   -0.023894    4.264914
 H   O  
   8   4
Direct
  0.477888  0.864458  0.174602
  0.313973  1.005139  0.463606
  0.637414  0.362425  0.174205
  0.800324  0.504292  0.462163
  0.639809  0.862496  0.673376
  0.801609  1.004404  0.961958
  0.474868  0.363169  0.674685
  0.312449  0.504881  0.963988
  0.305151  0.835056  0.315804
  0.809769  0.333732  0.314959
  0.811767  0.833961  0.814658
  0.302553  0.334584  0.816534
EA811
 1.0000000000000000
     4.422000    0.000000   -0.000000
    -0.000309    4.422000    0.000000
     0.021413   -0.040347    4.172750
 H   O  
   8   4
Direct
  0.658526  0.135641  0.657450
  0.370413 -0.018277  0.790000
  0.351064  0.652469  0.165545
  0.696387  0.640998  0.155874
  1.034603  0.796975  0.644688
  1.189862  0.509846  0.776299
  0.868626 -0.018279  0.283037
  1.157524  0.138134  0.155379
  0.499665  0.158226  0.817714
  0.526788  0.647878  0.304482
  1.024249  0.650253  0.816479
  1.006634  0.148564  0.325578
EA818
 1.0000000000000000
     4.423000    0.000000    0.000000
    -0.000309    4.423000   -0.000000
     0.021772   -0.040847    4.171743
 H   O  
   8   4
Direct
  0.114912  0.546671  0.058451
 -0.032421  0.406719  0.359222
  0.806564  1.044911  0.216198
  0.461154  1.043364  0.204781
  0.617245  0.551396  0.521408
  0.624191  0.547654  0.886554
  0.268269  1.062202  0.733441
 -0.020726  0.908925  0.865643
  0.133054  0.379113  0.206997
  0.634744  0.908089  0.205320
  0.617741  0.412755  0.701072
  0.138727  0.885288  0.706072
EA156
 1.0000000000000000
     4.338000   -0.000000    0.000000
    -0.004467    4.337998   -0.000000
     0.088618   -0.156217    4.336282
 H   O  
   8   4
Direct
  0.130241  0.656483  0.288629
  0.147203  0.305691  0.296341
  0.642846  0.663059  0.785103
  0.631528  0.311439  0.797413
  0.316046 -0.021495  0.136421
  0.666918 -0.014945  0.149534
  0.016412  0.126074  0.634678
  0.153904 -0.165346  0.774965
  0.000526  0.474590  0.303541
  0.499138  0.490911  0.780512
  0.483718 -0.021732  0.281473
 -0.011978 -0.014837  0.802540
EA674
 1.0000000000000000
     4.422000   -0.000000   -0.000000
    -0.000232    4.422000   -0.000000
     0.021850   -0.041221    4.172739
 H   O  
   8   4
Direct
  0.829198  0.728528  0.578872
  0.537490  0.587552  0.438747
  0.689859  0.195722  0.274244
  0.687599  0.197578 -0.091041
  0.362801  0.725297  1.084528
  0.017132  0.718952  1.091995
  0.176355  0.221887  0.771630
  0.175987  0.222333  0.406061
  0.694359  0.554900  0.597405
  0.685578  0.060014  0.089370
  0.192828  0.586000  1.094049
  0.168174  0.085428  0.587234
EA613
 1.0000000000000000
     4.419000    0.000000    0.000000
     0.000540    4.419000   -0.000000
     0.022532   -0.044483    4.177702
 H   O  
   8   4
Direct
  0.727605  0.773965  0.835591
  0.887322  0.636970  0.537993
  0.730340  0.274029  0.335639
  0.886568  0.135028  0.037060
  0.368012  0.139064  0.852520
  0.085535  0.298132  0.713152
  0.368815  0.639602  0.351892
  0.086105  0.798687  0.213048
  0.717348  0.606768  0.682950
  0.717230  0.106778  0.183270
  0.218887  0.124652  0.682277
  0.219377  0.625175  0.181976
EA418
 1.0000000000000000
     4.424000    0.000000    0.000000
     0.000154    4.424000   -0.000000
     0.019287   -0.037264    4.169789
 H   O  
   8   4
Direct
  0.478657  0.779189  0.583760
  0.480088  0.781709  0.218256
 -0.019340  0.288236  0.586671
 -0.019612  0.286206  0.220913
  0.480398  0.282368  1.085649
  0.480217  0.280118  0.719865
 -0.019461  0.788299  1.086690
 -0.019814  0.786229  0.720929
  0.479646  0.917398  0.403209
 -0.019521  0.424025  0.404067
  0.480381  0.418075  0.902940
 -0.019826  0.924068  0.904068
EA215
 1.0000000000000000
     4.338000    0.000000   -0.000000
    -0.004088    4.337998    0.000000
     0.081726   -0.144119    4.336836
 H   O  
   8   4
Direct
  0.287376  0.577319  0.507777
  0.149638  0.859239  0.349174
  0.300890  0.381840  0.980174
  0.153949  0.230089  0.690264
  0.680076  0.233916  0.501972
  0.966783  0.378020  0.345190
  0.673055  0.892262  0.834280
  0.674240  0.540263  0.835901
  0.314555  0.707840  0.330919
  0.329691  0.216648  0.825536
  0.828067  0.201947  0.333097
  0.812103  0.716946  0.839781
EA398
 1.0000000000000000
     4.420000   -0.000000   -0.000000
     0.017203    4.419967    0.000000
    -0.005176   -0.037306    4.176830
 H   O  
   8   4
Direct
  0.178377  0.772658  0.691937
 -0.105549  0.928599  0.836428
  0.683498  0.790124  0.196533
  0.388608  0.927665  0.334300
  0.168210  0.286844  0.209313
 -0.121417  0.435734  0.350117
  0.547197  0.283134  0.537387
  0.690920  0.437474  0.833784
  0.042555  0.944432  0.665059
  0.545095  0.960884  0.175283
  0.024118  0.451471  0.176264
  0.522601  0.453067  0.684616
EA755
 1.0000000000000000
     4.423000    0.000000    0.000000
    -0.000309    4.423000   -0.000000
     0.021772   -0.040847    4.171743
 H   O  
   8   4
Direct
  0.718627  0.641134  0.779588
  0.698222  0.295752  0.766692
  0.341254  1.002157  0.742540
  0.053648  1.144017  0.897428
  0.171402  0.336845  0.562655
  0.045001  0.631843  0.419437
  0.701757  0.139986  0.279032
  0.696729 -0.205910  0.269651
  0.709416  0.464730  0.917017
  0.194538  0.976290  0.914779
  0.211033  0.488015  0.399702
  0.700482 -0.035298  0.418507
EA265
 1.0000000000000000
     4.347000    0.000000    0.000000
     0.078217    4.346296    0.000000
    -0.077785   -0.076398    4.321625
 H   O  
   8   4
Direct
  0.376197  0.371050  0.241797
  0.530144  0.661890  0.381154
 -0.120284  0.365375  0.740321
  0.035963  0.654663  0.879615
 -0.118700  0.861771  0.245441
  0.032859  1.155937  0.378974
  0.402317  0.843481  0.743490
  0.695516  0.996572  0.877584
  0.547952  0.508875  0.215197
  0.053362  0.500754  0.714364
  0.044683  1.006578  0.209120
  0.541968  1.012571  0.711919
EA298
 1.0000000000000000
     4.435000   -0.000000   -0.000000
     0.034135    4.434869    0.000000
    -0.031942   -0.031697    4.149756
 H   O  
   8   4
Direct
  0.977577  0.349263  0.775970
  0.832475  0.061212  0.911459
  0.323023  0.799819  0.587082
  0.309747  0.809259  0.954155
  0.322241  0.299145  0.087239
  0.309472  0.308829  0.454362
  0.975868  0.846596  0.276817
  0.828315  0.559083  0.410058
  0.807444  0.214363  0.746565
  0.311559  0.668418  0.773337
  0.310263  0.167875  0.273608
  0.805130  0.712936  0.245681
EA417
 1.0000000000000000
     4.426000    0.000000   -0.000000
     0.005407    4.425997    0.000000
     0.009961   -0.033822    4.165851
 H   O  
   8   4
Direct
  0.710618  0.692993  0.687547
  0.425935  0.855729  0.818249
 -0.073022  0.851611 -0.001145
  0.206806  0.686518  0.134955
  0.048386  0.510406  0.503833
 -0.105003  0.223051  0.638495
  0.568437  0.535917  0.302385
  0.561285  0.190344  0.305748
  0.582265  0.868710  0.653923
  0.077093  0.861531  0.168954
  0.058395  0.365446  0.678159
  0.549502  0.361052  0.161028
EA659
 1.0000000000000000
     4.419000    0.000000    0.000000
    -0.000154    4.419000    0.000000
     0.023340   -0.044125    4.178702
 H   O  
   8   4
Direct
  0.972042  0.233574  0.482470
  0.679724  0.081975  0.356641
  0.312614  0.730508  0.663817
  0.164038  0.585592  0.364981
  0.811746  0.730144  1.163117
  0.664725  0.583979  0.864112
  0.475194  0.232945  0.989146
  0.182236  0.087176  0.856517
  0.836343  0.063354  0.517997
  0.329794  0.560685  0.514731
  0.829895  0.559877  1.014752
  0.337449  0.063254  1.018693
EA657
 1.0000000000000000
     4.377000    0.000000   -0.000000
     0.000229    4.377000   -0.000000
     0.010709   -0.021121    4.260934
 H   O  
   8   4
Direct
  0.752336  0.303992  0.544142
  0.891076  0.584389  0.374839
  0.244395  0.312057  1.017648
  0.403990  0.601869  0.890117
  0.932619  1.106521  0.193036
  1.071536  0.950976 -0.101038
  0.561424  0.954507  0.388485
  0.276736  1.115541  0.527637
  0.929926  0.438328  0.541678
  0.415438  0.449974  1.055633
  0.900949  0.939485  0.045427
  0.418788  0.948602  0.564035
EA786
 1.0000000000000000
     4.424000    0.000000    0.000000
    -0.000463    4.424000   -0.000000
     0.021616   -0.040099    4.169751
 H   O  
   8   4
Direct
  0.469603  0.380763  0.241644
  0.313995  0.667470  0.107926
  0.968545  0.383131  0.757976
  0.815360  0.670490  0.624337
  0.461362  0.026961  0.641860
  0.116120  0.016942  0.633631
  0.941431  0.009436  0.122335
  0.654401 -0.145499  0.256958
  0.305043  0.522690  0.282138
  0.796787  0.517960  0.790188
  0.284976  0.020042  0.781626
  0.789968  0.025036  0.291860
EA103
 1.0000000000000000
     4.337000    0.000000    0.000000
     0.048822    4.336725    0.000000
     0.057036   -0.049501    4.339343
 H   O  
   8   4
Direct
  0.047683  0.660972  0.570852
  0.344172  0.797286  0.428097
  0.010443  0.143155  1.070491
  0.362684  0.143531  1.067643
  0.509691  0.144873  0.573158
  0.862113  0.138394  0.564146
  0.518149  0.784443 -0.086858
  0.870061  0.788191 -0.077142
  0.198150  0.630049  0.404928
  0.187284  0.135159  0.929791
  0.683875  0.139621  0.429393
  0.697655  0.647813 -0.089870
EA758
 1.0000000000000000
     4.422000   -0.000000   -0.000000
     0.000463    4.422000   -0.000000
     0.020981   -0.041307    4.173743
 H   O  
   8   4
Direct
  0.365533  0.744496  0.070427
  0.207681  0.460592  0.208875
  0.860490 -0.030979  0.073243
  0.705929  0.258043  0.209650
  0.358567 -0.031462  0.572412
  0.205603  0.258302  0.708827
  0.859371  0.749241  0.574697
  0.706379  0.461449  0.710089
  0.190078  0.613330  0.043228
  0.689650  0.104663  0.041448
  0.188003  0.104605  0.541158
  0.687679  0.613870  0.544253
EA177
 1.0000000000000000
     5.642000   -0.000000   -0.000000
     0.000000    2.960000   -0.000000
     0.000000    0.000000    4.886000
 H   O  
   8   4
Direct
  0.755682  0.045431  0.378022
  0.805938  0.451834  0.188943
  0.236119  0.713395  0.317622
  0.303608  0.290969  0.483650
  1.119610  0.812276  0.837604
  0.961016  0.391216  0.838050
  0.619367  0.929316  0.825482
  0.461367  1.351187  0.827666
  0.734796  0.369829  0.363310
  0.231532  0.386105  0.312572
  0.955072  0.718263  0.840184
  0.455046  1.024304  0.827888
EA712
 1.0000000000000000
     4.412000    0.000000    0.000000
    -0.000231    4.412000    0.000000
     0.019174   -0.035931    4.192802
 H   O  
   8   4
Direct
  0.019082  0.167140  0.527580
  0.170137 -0.119667  0.667440
  0.169990  0.662360  0.165547
  0.016056  0.373141  0.029470
  0.669883  0.662978  0.666923
  0.516025  0.374336  0.529555
  0.516129  0.170722  0.028904
  0.670405 -0.116682  0.163929
 -0.001486  0.017197  0.695652
 -0.001142  0.526020  0.197611
  0.498555  0.526774  0.698116
  0.498065  0.018785  0.195286
EA556
 1.0000000000000000
     5.017000   -0.000000   -0.000000
     0.000000    3.301000   -0.000000
    -0.144663   -0.525997    4.927896
 H   O  
   8   4
Direct
  0.829261  0.844868  0.298502
  1.136080  0.832308  0.304259
  0.332272  0.332090  0.296081
  0.638781  0.333332  0.292319
  0.132652  1.033968  0.798406
  0.346668  0.767498  0.650046
  0.948850  0.545224  0.815458
  0.693104  0.425298  0.647067
  0.985937  1.018420  0.307812
  0.485129  0.512341  0.295915
  0.295004  0.882999  0.828932
  0.790906  0.374092  0.811917
EA332
 1.0000000000000000
     4.429000    0.000000    0.000000
    -0.001082    4.429000    0.000000
     0.019976   -0.035225    4.161803
 H   O  
   8   4
Direct
 -0.078055  0.843605  0.411367
  0.056525  1.003783  0.708727
  0.447769  0.842627 -0.120483
  0.447928  0.834938  0.245457
  0.911708  0.176716  1.048956
  1.201889  0.323241  0.909798
  0.422398  0.174137  0.543659
  0.706071  0.335470  0.412094
  0.092024  0.837776  0.558628
  0.584078  0.844397  0.062147
  1.045970  0.349145  1.072986
  0.553294  0.347320  0.580319
EA299
 1.0000000000000000
     4.382000    0.000000   -0.000000
    -0.002294    4.381999    0.000000
     0.044283   -0.078229    4.249049
 H   O  
   8   4
Direct
  0.633587  0.735468  1.089652
  0.509175  0.878019  0.787657
  0.150611  0.736403  0.574595
  0.005858  0.888274  0.285922
  0.364276  0.057737  0.399067
  0.664904  0.208137  0.288184
  0.146852  0.054828  0.926358
 -0.141867  0.197880  0.784476
  0.474017  0.712871  0.933117
 -0.015890  0.716539  0.425799
  0.514240  0.212442  0.457808
  0.004186  0.223481  0.953615
EA882
 1.0000000000000000
     4.414000   -0.000000    0.000000
    -0.000308    4.414000   -0.000000
     0.019448   -0.036481    4.188796
 H   O  
   8   4
Direct
  0.524518  0.291151  0.605720
  0.377520  0.145166  0.307148
  0.529081  0.788274  1.108419
  0.377427  0.647593  0.809711
  1.027138  0.767753  0.610668
  0.876899  0.475930  0.478720
  1.026592  0.267317  1.110566
  0.877315 -0.024817  0.978096
  0.547039  0.124994  0.453279
  0.548303  0.623924  0.953495
  1.048061  0.611738  0.446738
  1.048066  0.111548  0.946406
EA295
 1.0000000000000000
     4.423000   -0.000000    0.000000
     0.041376    4.422806    0.000000
    -0.039047   -0.038683    4.173638
 H   O  
   8   4
Direct
  0.228245  0.884746  0.863201
  0.100547  1.181049  0.717331
  0.739788  0.528984  1.021686
  0.583929  0.375508  0.730183
  0.215393  0.368776  0.364736
  0.214649  0.714619  0.374551
  0.730015  0.903217  0.352290
  0.576835  1.191314  0.215101
  0.061295  1.029377  0.879167
  0.565699  0.545783  0.878312
  0.078771  0.542494  0.370455
  0.557204  1.039419  0.381007
EA517
 1.0000000000000000
     4.449000    0.000000    0.000000
    -0.000544    4.449000   -0.000000
     0.010293   -0.018137    4.123947
 H   O  
   8   4
Direct
  0.675359  0.631542  0.370688
  0.830066  0.344584  0.236714
  0.330092  0.464635  0.562028
  0.171725  0.329464  0.861840
  0.508268  0.824307  0.740041
  0.800803  0.974015  0.863390
  0.016015  0.818685  0.231950
  0.300956  0.977646  0.362414
  0.660453  0.478793  0.202403
  0.165297  0.498516  0.713384
  0.650499  0.984664  0.692887
  0.142898  0.995056  0.200944
EA693
 1.0000000000000000
     4.422000   -0.000000   -0.000000
    -0.000154    4.422000    0.000000
     0.021923   -0.041440    4.172737
 H   O  
   8   4
Direct
  0.708446  0.218695  0.572183
  0.860721 -0.066962  0.425875
  0.360952  0.716019  0.426325
  0.208330  0.427479  0.560406
  0.860766  0.714818  0.929044
  0.707771  0.427457  1.065776
  0.207653  0.225613  1.060448
  0.360325 -0.064712  0.924870
  0.690697  0.070510  0.398858
  0.189194  0.580775  0.395536
  0.688417  0.579943  0.900042
  0.189780  0.071294  0.893415
EA205
 1.0000000000000000
     4.341000    0.000000   -0.000000
     0.155285    4.338222   -0.000000
    -0.155285   -0.149826    4.335634
 H   O  
   8   4
Direct
  0.830447  0.155722  0.745888
  1.110611  0.305231  0.606747
  0.490999  0.485012  0.411865
  0.639501  0.335266  0.122653
  0.334546  0.973653  0.770852
  0.468498  0.672395  0.908647
 -0.172411  0.832198  0.410005
 -0.034157  0.982203  0.129769
  0.982785  0.312248  0.787603
  0.465199  0.320781  0.256054
  0.503164  0.821137  0.751311
 -0.005626  0.809345  0.265984
EA553
 1.0000000000000000
     4.427000    0.000000   -0.000000
     0.017076    4.426967    0.000000
    -0.002906   -0.041258    4.162795
 H   O  
   8   4
Direct
  0.575680  0.047239  0.935513
  0.416719  0.333264  0.804700
  0.096472  0.551881  0.941621
  0.253044  0.834333  0.802151
  0.437107  0.683957  0.426035
  0.731868  0.543910  0.291495
  1.226707  0.180997  0.426736
  0.931531  0.044443  0.290951
  0.577233  0.188256  0.758272
  0.091065  0.690527  0.762204
  0.596898  0.716469  0.270031
  1.066956  0.215843  0.270776
EA790
 1.0000000000000000
     4.422000    0.000000    0.000000
    -0.000309    4.422000    0.000000
     0.021772   -0.040993    4.171742
 H   O  
   8   4
Direct
  0.745539  0.421568 -0.021844
  1.033161  0.570420  0.121184
  0.262653  0.571889  0.625566
  0.549494  0.418209  0.486135
  0.767716  0.926065  0.492455
  1.058664  1.073536  0.627788
  0.261034  0.916340 -0.007733
  0.546925  1.068804  0.131607
  0.891509  0.403591  0.150662
  0.396910  0.399927  0.653554
  0.924965  0.900366  0.652434
  0.409513  0.899181  0.162178
EA236
 1.0000000000000000
     4.365000    0.000000   -0.000000
    -0.003352    4.364999   -0.000000
     0.066109   -0.116603    4.282903
 H   O  
   8   4
Direct
  0.666585  0.211818  0.106530
  0.371370  0.066020  0.240981
  0.191930  0.686263  0.077686
 -0.156933  0.711568  0.093070
  1.032027  0.231821  0.438115
  1.193972  0.088678  0.718700
  0.657239  0.557002  0.419852
  0.660004  0.547627  0.775062
  0.519197  0.047448  0.069208
  0.007616  0.562031  0.098832
  1.022547  0.060070  0.578218
  0.520700  0.549885  0.600406
EA879
 1.0000000000000000
     4.407000    0.000000    0.000000
    -0.000308    4.407000   -0.000000
     0.017821   -0.033368    4.201830
 H   O  
   8   4
Direct
  0.587550  1.085578  0.343225
  0.428136  0.801714  0.204081
  0.572348  0.583575  0.844751
  0.408300  0.298788  0.712281
 -0.051313  0.918576  0.845525
  0.235239  0.779679  0.688237
 -0.056402  0.281100  0.194647
  0.231078  0.430112  0.336329
  0.607260  0.929550  0.179389
  0.574334  0.438185  0.669304
  0.094862  0.949854  0.675082
  0.077411  0.456008  0.173484
EA26
 1.0000000000000000
     4.338000   -0.000000   -0.000000
     0.000000    4.338000   -0.000000
     0.000000    0.000000    4.338000
 H   O  
   8   4
Direct
  0.937099  0.879009  1.109305
  1.081354  1.166585  0.954648
  0.438619  0.377918  0.100432
  0.585506  0.668489 -0.046021
 -0.061625  0.376171  0.600188
  0.084499  0.667482  0.454515
  0.438436 -0.123149  0.599607
  0.584748  0.167934  0.453532
  1.107743  1.023853  1.125894
  0.607932  0.523460  0.123876
  0.107512  0.521864  0.623795
  0.607709  0.022476  0.622990
EA19
 1.0000000000000000
     4.338000   -0.000000   -0.000000
     0.000000    4.338000   -0.000000
     0.000000    0.000000    4.338000
 H   O  
   8   4
Direct
  0.615652  0.617438  0.770917
  0.768256  0.910378  0.635898
  0.617285  0.115974  0.282282
  0.762522  0.406863  0.134650
  0.116914  0.614997  0.283046
  0.262837  0.905999  0.136592
  0.116645  0.114359  0.782855
  0.261655  0.405539  0.635847
  0.785456  0.760923  0.802505
  0.786556  0.261817  0.304351
  0.286301  0.760470  0.305909
  0.285820  0.260182  0.805173
EA783
 1.0000000000000000
     4.419000    0.000000   -0.000000
    -0.000309    4.419000   -0.000000
     0.020787   -0.038874    4.178767
 H   O  
   8   4
Direct
  0.616473  0.680205  0.482242
  0.326966  0.835556  0.614304
 -0.153867  0.348227  0.282637
 -0.154703  0.348770  0.647532
  0.353426  0.352097 -0.217997
  0.350278  0.351910  0.147241
  0.133657  0.833709  0.113681
 -0.158083  0.684507 -0.017878
  0.478700  0.848504  0.445557
 -0.017662  0.351758  0.464814
  0.488921  0.352755 -0.034682
 -0.017888  0.851291 -0.053253
EA23
 1.0000000000000000
     4.338000   -0.000000   -0.000000
     0.000000    4.338000   -0.000000
     0.000000    0.000000    4.338000
 H   O  
   8   4
Direct
  0.372895  0.112793  0.264535
  0.227552  0.408577  0.401553
  0.367802  0.591631  0.748940
  0.074604  0.731176  0.897067
  0.880598  0.104023  0.745386
  0.735522  0.393548  0.895176
  0.876504  0.605237  0.253572
  0.730664  0.899646  0.391744
  0.203808  0.258091  0.236957
  0.220312  0.759767  0.728812
  0.707967  0.246526  0.727791
  0.712564  0.754671  0.221377
EA646
 1.0000000000000000
     4.423000    0.000000    0.000000
     0.000232    4.423000   -0.000000
     0.020674   -0.040258    4.170754
 H   O  
   8   4
Direct
  0.132509  0.219341  0.482015
 -0.018773  0.373017  0.775922
  0.639852  0.062473  0.155769
  0.481040  0.349076  0.290432
  0.473357  0.848398  0.784546
  0.626093  0.558006  0.651599
 -0.177061  0.542031  0.150991
  0.112585  0.692154  0.285307
 -0.040800  0.204841  0.625997
  0.469116  0.197084  0.121339
  0.455053  0.692956  0.619053
 -0.039910  0.711972  0.119546
EA839
 1.0000000000000000
     4.420000   -0.000000    0.000000
    -0.000309    4.420000   -0.000000
     0.020709   -0.038718    4.177769
 H   O  
   8   4
Direct
  0.425674  0.154163  0.083631
  0.772501  0.158503  0.082091
  0.088689  0.184471  0.739461
 -0.061612  0.029239  0.448703
  0.591286  0.364393  0.445335
  0.437587  0.515360  0.737726
 -0.074812  0.656409  0.089076
  0.271571  0.653539  0.105398
  0.600765  0.022077  0.106992
  0.109408  0.013554  0.593081
  0.607833  0.536032  0.591332
  0.097990  0.519172  0.079491
EA367
 1.0000000000000000
     4.415000   -0.000000    0.000000
     0.057559    4.414625   -0.000000
    -0.053882   -0.055377    4.188287
 H   O  
   8   4
Direct
  0.701360  0.182926  0.146886
  0.862444  0.306278 -0.148724
  0.700673  0.678178  0.642225
  0.850104  0.817628  0.348386
  0.174593  0.460590  0.348105
  0.025718  0.173708  0.481097
  0.334698  0.807591  0.840347
  0.048553  0.653585  0.970090
  0.692071  0.344783 -0.008683
  0.682642  0.846271  0.494831
  0.196896  0.308111  0.512832
  0.192722  0.813427  1.016782
EA356
 1.0000000000000000
     4.426000    0.000000    0.000000
     0.054768    4.425661    0.000000
    -0.050969   -0.052014    4.165363
 H   O  
   8   4
Direct
  0.651880  0.013020  0.144626
  0.803815  0.169067  0.436688
  0.668930  0.674297  0.804409
  0.953685  0.519820  0.950542
  0.177687  0.171984  0.760752
  0.468008  0.019705  0.626544
  0.164854  0.675423  0.277939
  0.448693  0.528751  0.123818
  0.822833 -0.003794  0.292083
  0.803281  0.499841  0.779633
  0.321677  0.007135  0.798496
  0.301377  0.502100  0.292668
EA360
 1.0000000000000000
     4.433000    0.000000   -0.000000
     0.024372    4.432933    0.000000
    -0.017903   -0.032229    4.152836
 H   O  
   8   4
Direct
  0.286458  0.154352  0.423062
  0.448074  0.017453  0.718915
  0.640593  0.516573  0.743852
  0.923468  0.671132  0.603238
  0.276177  0.631749 -0.103500
  0.284198  0.632757  0.263047
  0.637819  0.021277  0.237427
  0.922614  0.178060  0.102987
  0.276861 -0.011601  0.574907
  0.787864  0.501306  0.571004
  0.284545  0.495860  0.079254
  0.784905  0.010927  0.063795
EA867
 1.0000000000000000
     4.421000    0.000000    0.000000
    -0.000386    4.421000    0.000000
     0.021345   -0.039992    4.173754
 H   O  
   8   4
Direct
  1.005149  0.770943 -0.027967
  0.978452  0.790007  0.336409
  1.121888  0.163339  0.503094
  0.821437  0.298120  0.628312
  0.641078  0.634351  0.497296
  0.488075  0.493568  0.795284
  0.628264  0.142157  1.007900
  0.475106  0.000579  1.303437
  0.981069  0.644823  0.160058
  0.966430  0.136410  0.666168
  0.471946  0.659355  0.644559
  0.458918  0.168299  1.155125
EA331
 1.0000000000000000
     4.400000    0.000000   -0.000000
     0.041776    4.399802   -0.000000
    -0.023110   -0.072130    4.216320
 H   O  
   8   4
Direct
  0.263220  0.241631  0.558823
  0.413303  0.527241  0.710544
  0.758352  0.245641  0.073551
  0.917130  0.530666  0.215488
  0.914801  1.051884  0.402897
  0.782431  0.894398  0.696039
  0.414137  1.050908 -0.100797
  0.280318  0.895919  0.193318
  0.434609  0.378049  0.538728
  0.930862  0.379286  0.045025
  0.948806  0.882804  0.544905
  0.446129  0.881676  0.041668
EA536
 1.0000000000000000
     3.683000   -0.000000   -0.000000
     0.000000    7.367000   -0.000000
     0.000000    0.000000    3.007000
 H   O  
   8   4
Direct
  0.596898  0.339895  0.650974
  0.606318  0.180666  0.316801
  0.256820  0.682268  0.393016
  0.614615  0.673452  0.663481
  0.121333 -0.073961 -0.166790
 -0.204448 -0.072659  0.151532
  0.131512  0.580300 -0.131739
 -0.209172  0.579719  0.163985
  0.440423  0.263778  0.466445
  0.460135  0.755811  0.496395
 -0.051608  0.007491 -0.025175
 -0.050651  0.500041 -0.004929
EA518
 1.0000000000000000
     4.419000    0.000000   -0.000000
     0.001157    4.419000   -0.000000
     0.022246   -0.045737    4.178690
 H   O  
   8   4
Direct
  0.500509  0.498748  0.528869
  0.781823  0.341583  0.378844
 -0.018718  0.503919  0.711640
  0.125082  0.345382  1.001588
  0.494962  0.995350  1.017228
  0.788045  0.843983  0.887387
  0.133672  1.160591  0.521200
 -0.024844  0.875223  0.382671
  0.653919  0.520368  0.362537
  0.150372  0.516036  0.858996
  0.648197  1.010389  0.850012
  0.141698  1.014903  0.344850
EA713
 1.0000000000000000
     4.422000   -0.000000    0.000000
     0.000386    4.422000    0.000000
     0.020976   -0.041297    4.172743
 H   O  
   8   4
Direct
  0.691073  0.772574  0.922754
  0.392630  0.643318  0.785773
  0.518241  0.143068  0.427778
  0.377403  0.292848  0.129757
  1.025138  0.142172  0.917427
  0.882722  0.303736  0.628541
  0.169892  0.981269  0.286618
  0.180719  0.635185  0.275315
  0.535168  0.809819  0.764033
  0.536634  0.316546  0.287851
  1.051991  0.314207  0.776645
  0.040670  0.804339  0.259983
EA516
 1.0000000000000000
     4.422000    0.000000    0.000000
     0.004322    4.421998   -0.000000
     0.015226   -0.041029    4.173771
 H   O  
   8   4
Direct
  0.819096  0.075733  0.968300
  1.165155  0.085893  0.960855
  0.325748  0.067635  0.459828
  0.672581  0.062513  0.468799
  0.659939  0.440708  0.817884
  0.505184  0.586481  1.113054
  0.825573  0.575561  0.454273
  1.171470  0.574971  0.467377
  0.996252 -0.054801  0.959750
  0.497594 -0.071092  0.451935
  0.492076  0.414847  0.966221
  0.997921  0.439120  0.471651
EA585
 1.0000000000000000
     4.417000    0.000000    0.000000
    -0.000617    4.417000    0.000000
     0.026860   -0.049628    4.181619
 H   O  
   8   4
Direct
  0.459527 -0.052303  0.277551
  0.597572  0.098881  0.577592
  0.465117  0.264278  0.943298
  0.465775  0.610300  0.929963
  0.977213 -0.236036 -0.065989
  0.979514  0.111316 -0.072140
  0.958730  0.259679  0.434207
  0.955656  0.605911  0.435649
  0.625311 -0.069405  0.428300
  0.601940  0.436581  0.926394
  1.114217 -0.062783 -0.054367
  1.093094  0.434120  0.439636
EA202
 1.0000000000000000
     4.427000   -0.000000   -0.000000
     0.000000    4.427000   -0.000000
     0.000000    0.000000    4.164000
 H   O  
   8   4
Direct
  1.046583  0.317637  0.451801
  0.754464  0.466810  0.582187
  1.064166  0.797432 -0.053043
  0.922460  0.640782  0.242864
  0.572493  0.938645  0.633538
  0.417239  0.652043  0.770412
  0.555741  0.307276 -0.039946
  0.412929  0.470805  0.250370
  0.889990  0.296114  0.614173
  0.899785  0.814483  0.101373
  0.406640  0.798333  0.596277
  0.383444  0.301761  0.104888
EA468
 1.0000000000000000
     4.420000    0.000000   -0.000000
     0.000231    4.420000    0.000000
     0.021069   -0.040899    4.176747
 H   O  
   8   4
Direct
  0.313354  0.396638  0.730879
  0.456404  0.236246  1.021280
  0.811517  0.888790  0.732968
  0.959725  0.734156  1.023936
  0.965972  0.556292  0.544505
  0.820644  0.266953  0.400863
  0.466554  1.059057  0.544370
  0.319495  0.769369  0.403299
  0.482264  0.407423  0.878956
  0.981497  0.904121  0.879350
  0.989196  0.406872  0.373788
  0.488019  0.908950  0.374008
EA270
 1.0000000000000000
     4.356000   -0.000000    0.000000
     0.054510    4.355659   -0.000000
    -0.039052   -0.081674    4.302048
 H   O  
   8   4
Direct
  0.212068  0.708310  0.435055
  0.222860  0.357604  0.436500
  0.230401 -0.119969  0.955688
  0.523497  0.029229  1.093040
  0.859265  0.683985  0.773016
  0.702740  0.403122  0.916246
  0.692013 -0.105692  0.461922
  0.855487  0.180600  0.600020
  0.355842  0.535993  0.439172
  0.371303  0.049250  0.927464
  0.879907  0.536279  0.939219
  0.866883  0.027862  0.432147
EA358
 1.0000000000000000
     4.493000    0.000000    0.000000
     0.011057    4.492986    0.000000
    -0.004446   -0.020594    4.042945
 H   O  
   8   4
Direct
  0.398540  0.140785  1.065510
  0.426289  0.149445  0.689863
  0.280494  0.526852  0.558927
  0.291219  0.539167  0.183000
  0.757624  0.696788  0.886233
  0.894769  0.410611  1.033026
  0.916393  0.231819  0.522787
  0.922405 -0.108939  0.514412
  0.418950  0.011011  0.873724
  0.418143  0.508961  0.374926
  0.928386  0.563974  0.868316
  0.911384  0.063596  0.370804
EA542
 1.0000000000000000
     4.422000    0.000000    0.000000
     0.004322    4.421998   -0.000000
     0.015226   -0.041029    4.173771
 H   O  
   8   4
Direct
  0.832364  0.072580  1.026439
  1.178169  0.081448  1.010084
  0.640640  0.105169  0.503815
  0.640759 -0.240686  0.522452
  0.669125  0.437724  0.861415
  0.515615  0.586227  1.155896
  1.141186  0.610566  0.508862
  1.138453  0.263844  0.509718
  1.008789 -0.058627  1.012078
  0.504660 -0.068650  0.500273
  0.503717  0.411740  1.012708
  1.003589  0.438637  0.519528
EA396
 1.0000000000000000
     4.568000    0.000000   -0.000000
     0.033724    4.567876    0.000000
    -0.027318   -0.031624    3.912777
 H   O  
   8   4
Direct
  0.774752  0.426977  0.686554
  0.915720  0.148247  0.840329
  0.271001  0.608137  0.666639
  0.426386  0.886271  0.541667
  0.768247  0.911324  0.167243
  0.930725  0.641297  0.018236
  0.273723  0.100265  0.174599
  0.417097  0.379769  0.034276
  0.944829  0.298616  0.669202
  0.442169  0.729200  0.706941
  0.947044  0.796247  0.188952
  0.444420  0.224570  0.200100
EA520
 1.0000000000000000
     4.429000   -0.000000    0.000000
     0.002860    4.428999    0.000000
     0.013284   -0.033326    4.158845
 H   O  
   8   4
Direct
  0.601052  1.066090  0.102701
  0.894169  0.930235  0.243300
  0.238959  0.759907  0.430521
  0.081702  0.910324  0.722019
  0.095632  0.237012  0.082913
  0.100279  0.582011  0.069123
  0.569267  0.282751  0.556560
  0.722715  0.566715  0.414847
  0.750700  0.907012  0.068160
  0.247527  0.936393  0.571123
  0.233113  0.408291  0.092429
  0.736321  0.422234  0.589531
EA429
 1.0000000000000000
     4.477000   -0.000000    0.000000
     0.009298    4.476990   -0.000000
    -0.002274   -0.020250    4.071949
 H   O  
   8   4
Direct
  0.467051  0.180042  0.879005
  0.322284  0.473947  0.756708
  0.154041  0.857827  0.586217
 -0.000733  1.010127  0.882787
  0.143775  0.486429  0.255284
 -0.004374  0.200817  0.394189
  0.642654  0.699017  0.250526
  0.503929  0.993227  0.381754
  0.490763  0.339317  0.719206
 -0.012852  0.837563  0.736872
 -0.027940  0.355064  0.227857
  0.472490  0.832837  0.223500
EA269
 1.0000000000000000
     4.353000    0.000000    0.000000
     0.090403    4.352061    0.000000
    -0.064855   -0.135297    4.308388
 H   O  
   8   4
Direct
  0.705755  1.012194  0.211908
  0.691974  0.660998  0.210462
  0.859836  0.478413  0.585276
  0.724833  0.190126  0.729866
  0.049766  0.478916  0.083371
  0.178073  0.181214  0.229011
  0.201885  1.000448  0.718355
  0.209647  0.649455  0.716460
  0.715879  0.832031  0.073049
  0.691938  0.334708  0.563457
  0.216493  0.327035  0.067259
  0.193502  0.821678  0.577941
EA336
 1.0000000000000000
     4.425000   -0.000000    0.000000
    -0.000386    4.425000   -0.000000
     0.007202   -0.012657    4.167975
 H   O  
   8   4
Direct
  0.921542  0.485492  1.013757
  1.071246  0.200944  0.866533
  0.427013  0.180543  0.517626
  0.426514  0.526055  0.517670
  0.452277  1.013437  1.032853
  0.439216  0.667129  1.026880
  0.251244  0.850719  0.675045
 -0.093791  0.841913  0.661797
  1.094069  0.350166  1.036685
  0.562834  0.353379  0.520180
  0.580822  0.835024  1.014822
  0.083785  0.857882  0.525154
EA454
 1.0000000000000000
     4.450000   -0.000000    0.000000
     0.012504    4.449982   -0.000000
    -0.001439   -0.030924    4.120884
 H   O  
   8   4
Direct
  0.675872  0.874213  0.907394
  0.333226  0.850812  0.930751
  0.345170  0.381758  0.394905
  0.634778  0.232165  0.262022
  0.145169  0.876818  0.400058
 -0.143634  0.733845  0.258787
  0.855841  0.381047  0.896899
  1.139648  0.221723  0.763238
  0.514427  0.727767  0.911780
  0.475906  0.208171  0.421805
  0.011440  0.705471  0.422156
  0.987003  0.208155  0.931166
EA772
 1.0000000000000000
     4.421000    0.000000    0.000000
    -0.000386    4.421000    0.000000
     0.021277   -0.039637    4.174758
 H   O  
   8   4
Direct
  0.189417  0.834918  1.003209
 -0.101697  0.970412  0.854162
  0.042936  0.654584  0.664458
  0.178093  0.497588  0.365145
  0.528520  0.822858  0.379841
  0.528213  1.168381  0.381556
  0.665613  0.494778  0.199025
  0.645020  0.484181 -0.164741
  0.048310  1.003396  1.020704
  0.011450  0.485638  0.517514
  0.544676  0.996055  0.523463
  0.518989  0.497858  0.026642
EA563
 1.0000000000000000
     4.424000   -0.000000    0.000000
     0.010501    4.423988   -0.000000
     0.007131   -0.042437    4.168778
 H   O  
   8   4
Direct
 -0.129121  0.541007  0.448102
  0.022025  0.823988  0.302684
  0.536376  0.056782  0.277054
  0.539683  0.043051  0.641826
  0.534838  0.546417  0.781705
  0.533571  0.547492  1.147226
 -0.134222  0.180110  0.821946
  0.211070  0.180045  0.821930
  0.043085  0.675952  0.472482
  0.542469  0.187012  0.466653
  0.532689  0.683778  0.965263
  0.038084  0.167468  0.965352
EA492
 1.0000000000000000
     4.525000    0.000000   -0.000000
     0.027247    4.524918    0.000000
    -0.018853   -0.033697    3.985813
 H   O  
   8   4
Direct
  0.698549  0.655084  0.082833
  0.551627  0.372462 -0.062436
  0.520979  0.867644  0.747701
  0.373611  1.010368  0.439654
  0.197054  0.509821  0.742012
 -0.141287  0.509781  0.731347
 -0.104207  0.997579  0.285428
 -0.097977  1.005444 -0.096027
  0.522380  0.533464  0.097176
  0.539206  1.032323  0.594208
  0.031076  0.493627  0.587638
  0.031385  0.983376  0.097579
EA30
 1.0000000000000000
     4.869000   -0.000000   -0.000000
     0.000000    4.869000   -0.000000
     0.000000    0.000000    3.443000
 H   O  
   8   4
Direct
 -0.112924  0.398518  0.567359
 -0.111875  0.082512  0.586421
  0.096433 -0.095122  0.245705
 -0.039484 -0.266454 -0.075367
 -0.221203  0.753384  0.435694
 -0.405833  0.893597  0.743803
  0.537097  0.071139  0.258865
  0.670963  0.240783 -0.065890
  0.010012  0.241228  0.581172
  0.122347 -0.259179  0.089349
 -0.386084  0.727178  0.590093
  0.506537  0.229776  0.092839
EA748
 1.0000000000000000
     4.423000   -0.000000   -0.000000
    -0.000386    4.423000    0.000000
     0.021766   -0.040619    4.170745
 H   O  
   8   4
Direct
  0.573205  0.056379  0.497463
  0.426572  0.348766  0.366898
  0.582269  0.840716  1.003480
  0.427655  0.552370  0.867272
  1.079109  0.841268  0.504287
  0.926985  0.551917  0.367571
  1.082815  0.062788  1.001908
  0.928226  0.349527  0.867559
  0.405741  0.196241  0.532652
  0.410798  0.705684  1.035722
  0.908036  0.705546  0.535410
  0.909683  0.196542  1.033118
EA584
 1.0000000000000000
     4.418000   -0.000000   -0.000000
     0.002930    4.417999    0.000000
     0.202707   -0.225499    4.182022
 H   O  
   8   4
Direct
  0.880412  0.580393  0.544005
  1.043648  0.291810  0.399180
  0.229449 -0.225758  0.391736
  0.513275 -0.082825  0.540665
  0.881975 -0.229414  1.035403
  1.013636  0.063247  0.897876
  0.380176  0.271779  1.040148
  0.514728  0.565903  0.908371
  0.884653  0.436161  0.361057
  0.366978 -0.054032  0.378421
  0.844993 -0.078302  0.881389
  0.359122  0.413257  0.872487
EA459
 1.0000000000000000
     4.456000   -0.000000   -0.000000
     0.030331    4.455897    0.000000
    -0.023385   -0.036568    4.109771
 H   O  
   8   4
Direct
  0.085158  0.313958  0.306218
  0.088849 -0.029341  0.305745
  0.581231  0.316481  0.804700
  0.581807 -0.026192  0.813764
  0.073904  0.636282  0.668519
  0.416215  0.644321  0.650703
  0.755328  0.812125  0.445196
  0.910429  0.658776  0.150070
  0.221696  0.142968  0.302996
  0.716205  0.144144  0.799886
  0.252096  0.647926  0.805573
  0.749397  0.634312  0.306442
EA725
 1.0000000000000000
     4.422000   -0.000000   -0.000000
    -0.000232    4.422000   -0.000000
     0.022146   -0.041741    4.173733
 H   O  
   8   4
Direct
  0.287866  0.427214  0.159189
  0.129989  0.142991  0.295697
  0.292421  0.940950  0.669218
  0.129448  0.801695  0.961792
  0.959013  0.143641  0.793035
  0.806302  0.431475  0.659499
  0.967478  0.762223  0.462134
  0.805186  0.619619  0.170579
  0.301433  0.278006  0.328830
  0.296939  0.769564  0.813434
  0.790440  0.282250  0.829229
  0.799304  0.792255  0.316705
EA237
 1.0000000000000000
     4.374000   -0.000000   -0.000000
     0.000000    4.374000   -0.000000
     0.000000    0.000000    4.266000
 H   O  
   8   4
Direct
  0.701296  0.788855  0.285398
  1.051650  0.783413  0.277572
  0.202816  0.284207  0.281354
  0.552711  0.283740  0.282603
  0.881594  0.579953  0.618124
  1.031057  0.289370  0.757085
  0.192925  0.786938  0.785018
  0.542397  0.792959  0.788805
  0.878599  0.923935  0.282428
  0.377923  0.422123  0.282399
  0.869284  0.438597  0.793633
  0.365232  0.927241  0.775859
EA464
 1.0000000000000000
     4.435000    0.000000   -0.000000
     0.003406    4.434999   -0.000000
     0.015931   -0.039767    4.148779
 H   O  
   8   4
Direct
  0.039733  0.541576  0.498749
  0.191119  0.834348  0.624534
  0.064508  0.013740  0.986510
  0.057031  0.358568  0.968354
  0.869698  0.181042  0.614903
  0.525054  0.189513  0.616689
  0.544733  0.549258  0.996916
  0.694272  0.837438  1.137249
  0.208957  0.677003  0.460425
  0.195684  0.188335  0.963055
  0.697508  0.189470  0.471337
  0.719063  0.681605  0.972372
EA106
 1.0000000000000000
     4.439000    0.000000    0.000000
     0.116354    4.437475    0.000000
     0.140996   -0.136776    4.145348
 H   O  
   8   4
Direct
  1.082839  0.137813  0.239919
  0.737779  0.157829  0.259661
  0.579472  0.152922  0.742662
  0.234580  0.166470  0.757441
  1.062041  0.825850  0.627678
  0.777847  0.669436  0.760296
  0.590822  0.796580  0.139114
  0.438479  0.513207  0.271706
  0.907307  0.145700  0.105325
  0.405801  0.165286  0.605543
  0.934029  0.654067  0.590031
  0.428190  0.658296  0.100772
EA705
 1.0000000000000000
     4.401000    0.000000   -0.000000
    -0.000307    4.401000    0.000000
     0.016405   -0.030381    4.214859
 H   O  
   8   4
Direct
  0.910730  0.457481  0.535231
  0.620374  0.593092  0.385953
  0.112064  0.582217  0.897835
  0.262474  0.294117  1.036181
  0.153697 -0.073999  0.192726
  0.154474 -0.063541  0.554446
  0.772024  0.061003  0.693009
  0.782406  0.070974  1.054589
  0.758354  0.420247  0.372809
  0.275468  0.437269  0.861425
  0.290882 -0.061087  0.372405
  0.798847 -0.069311  0.876328
EA529
 1.0000000000000000
     4.418000    0.000000   -0.000000
    -0.000540    4.418000    0.000000
     0.025613   -0.047209    4.180655
 H   O  
   8   4
Direct
  0.623981  0.147521  0.902064
  0.278263  0.144760  0.901687
  0.600095  0.472075  0.527215
  0.317320  0.627493  0.386111
  0.964265  0.503664 -0.133952
  0.956710  0.502498  0.230646
  0.954820  1.009303  0.361933
  0.952433  0.998480  0.725904
  0.450354  0.141723  1.045504
  0.465735  0.645229  0.556300
  0.969750  0.639785  0.050467
  0.947100  1.141044  0.549966
EA873
 1.0000000000000000
     4.423000    0.000000    0.000000
    -0.000232    4.423000   -0.000000
     0.021553   -0.040556    4.171747
 H   O  
   8   4
Direct
 -0.059589  0.519071  0.176520
  0.101171  0.790821  0.340589
 -0.059445  0.160621  0.814980
  0.106086  0.300630  0.524634
  0.618224  0.802485  0.828391
  0.777859  0.653829  0.537296
  0.470227 -0.012886  0.196663
  0.764578  0.128524  0.328794
  0.128246  0.634508  0.178163
  0.109716  0.129079  0.668846
  0.604471  0.632144  0.679817
  0.612077  0.152950  0.163638
EA433
 1.0000000000000000
     4.431000    0.000000    0.000000
     0.022427    4.430943    0.000000
    -0.014725   -0.032929    4.155843
 H   O  
   8   4
Direct
  1.081342  0.793248  0.112288
  0.796424  0.946702  0.252783
  0.571264  0.789623  0.951400
  0.557329  0.770176  0.585652
 -0.184389  0.312135  0.915134
  0.102813  0.451074  0.767428
  0.458188  0.446563  0.105880
  0.629777  0.310629  0.395552
  0.925818  0.770081  0.274749
  0.428076  0.786417  0.773814
 -0.037271  0.283727  0.744095
  0.461203  0.275005  0.249919
EA528
 1.0000000000000000
     4.418000    0.000000    0.000000
     0.000540    4.418000   -0.000000
     0.023856   -0.047131    4.179666
 H   O  
   8   4
Direct
  0.542110  0.719384  0.868498
  0.831929  0.868834  1.004325
  0.687480  0.221279  0.497381
  0.834309  0.512680  0.366115
  0.327155  0.364615  0.677742
  0.040202  0.214280  0.818328
  0.162423  0.702538  0.199244
  0.008725  0.857203  0.491573
  0.683964  0.885068  0.833683
  0.664349  0.375046  0.334663
  0.182380  0.379870  0.853303
  0.178082  0.874948  0.344121
EA394
 1.0000000000000000
     4.435000    0.000000    0.000000
    -0.000464    4.435000   -0.000000
     0.014555   -0.026574    4.148889
 H   O  
   8   4
Direct
  0.732993  0.288402  1.056890
  0.582734  0.001540  0.916144
 -0.074270 -0.001065  0.600889
  0.214354  0.146452  0.740228
 -0.073061  0.813662  1.057147
  0.217719  0.666892  0.919600
  0.584075  0.807421  0.416776
  0.738911  0.521876  0.552369
  0.564410  0.150577  1.087360
  0.062082  0.169431  0.573390
  0.058598  0.638802  1.078850
  0.573062  0.661817  0.590700
EA303
 1.0000000000000000
     4.451000   -0.000000   -0.000000
     0.000000    4.451000   -0.000000
     0.000000    0.000000    4.121000
 H   O  
   8   4
Direct
  0.201753  0.935758  0.574492
  0.350777  0.652216  0.429891
  0.847233  0.473890  0.411146
  0.831091  0.129930  0.400521
  0.049365  0.304498  0.762826
  0.344661  0.434416  0.901666
  0.520007 -0.069043  0.912247
  0.863652 -0.085345  0.924681
  0.180687  0.788219  0.401902
  0.705089  0.308365  0.420492
  0.205576  0.265900  0.922495
  0.685343 -0.211582  0.905859
EA323
 1.0000000000000000
     4.433000    0.000000   -0.000000
     0.019188    4.432958   -0.000000
    -0.012322   -0.028795    4.152882
 H   O  
   8   4
Direct
  0.538821  0.743852  0.855447
  0.388137  0.463380  1.005122
  1.043417  0.242508  0.862192
  0.892459 -0.039340  1.008801
  0.518432  0.111995  0.159120
  0.516981  0.118625  0.525555
  0.881351  0.451965  0.190749
  1.039665  0.597015  0.484885
  0.369065  0.606274  0.829583
  0.868690  0.110849  0.841163
  0.381598  0.121004  0.341200
  0.870443  0.623096  0.338338
EA230
 1.0000000000000000
     4.398000   -0.000000   -0.000000
     0.000000    4.398000   -0.000000
     0.000000    0.000000    4.220000
 H   O  
   8   4
Direct
  0.716324  0.375410  0.166927
  0.422575  0.523345  0.298489
  0.200820  0.209408  0.802937
 -0.093036  0.355419  0.669440
  0.539885  1.018941  0.992913
  0.381084  0.734358  0.853099
  0.031376  1.007785  0.478128
 -0.098541  0.708938  0.340534
  0.568019  0.360400  0.337139
  0.058543  0.376040  0.835676
  0.546418  0.877317  0.815647
  0.069582  0.851677  0.319045
EA258
 1.0000000000000000
     4.443000    0.000000    0.000000
     0.012175    4.442983   -0.000000
    -0.011331   -0.011300    4.134969
 H   O  
   8   4
Direct
  0.681249  0.473882  0.268310
  0.973623  0.625394  0.149254
  0.188245  0.472116  0.776907
  0.475931  0.625676  0.648551
  0.174380  0.960554 -0.046195
  0.174926  0.961184  0.322787
  0.675326  0.961346  0.822585
  0.674513  0.960834  0.453577
  0.842584  0.453643  0.111113
  0.342893  0.455276  0.611706
  0.310733  0.958215  0.138409
  0.811012  0.958600  0.638058
EA289
 1.0000000000000000
     4.414000    0.000000   -0.000000
     0.058702    4.413610    0.000000
    -0.055065   -0.056312    4.189260
 H   O  
   8   4
Direct
  0.637338  0.826282  0.429074
  0.496300  0.536764  0.568227
 -0.009197  0.821843  1.101640
  0.289446  0.698966  1.249757
  1.002820  0.038078  0.573136
  1.145752  0.321923  0.427286
  0.509559  0.181373  0.936174
  0.800308  0.327087  1.074551
  0.657200  0.683257  0.602490
  0.135448  0.654000  1.088001
  1.172702  0.176136  0.597524
  0.661986  0.160250  1.104162
EA583
 1.0000000000000000
     4.421000   -0.000000    0.000000
     0.001620    4.421000    0.000000
     0.019383   -0.041541    4.174748
 H   O  
   8   4
Direct
  0.005282  0.794761  0.545028
  0.169935  0.512674  0.675940
  0.512805  0.010656  0.540477
  0.668865  0.297078  0.677301
  0.664485  0.492766  0.182808
  0.517025  0.781413  0.043989
  0.019234  0.293664  0.035170
  0.169989  0.008832  0.176199
  0.184580  0.669600  0.514451
  0.684975  0.144385  0.508777
  0.684320  0.640044  0.012320
  0.189363  0.155882  0.005519
EA808
 1.0000000000000000
     4.418000    0.000000   -0.000000
    -0.000386    4.418000   -0.000000
     0.020573   -0.038372    4.179773
 H   O  
   8   4
Direct
  0.194239  0.740094  0.449081
  0.540201  0.731837  0.445344
  0.867551  0.718719  1.126490
  0.868221  0.714882  0.762176
  0.531699  0.248327  0.961944
  0.394969 -0.044878  1.102267
  1.007296  0.245095  0.466932
  0.714214  0.101746  0.601841
  0.363631  0.599980  0.442493
  0.864018  0.580177  0.944830
  0.366169  0.104968  0.935723
  0.873745  0.070132  0.443959
EA849
 1.0000000000000000
     4.423000    0.000000    0.000000
    -0.000232    4.423000    0.000000
     0.021548   -0.040474    4.170748
 H   O  
   8   4
Direct
  0.713971  0.189126  0.289782
  0.864201  0.044286  0.585233
  0.360280  0.564277  0.588149
  0.213115  0.855477  0.457047
  0.360349  0.064394  1.088575
  0.213259  0.355540  0.957207
  0.714329  0.686844  0.785613
  0.862310  0.543209  1.083253
  0.885861  0.208610  0.433263
  0.384048  0.719299  0.425866
  0.384865  0.219995  0.927069
  0.884480  0.707577  0.931364
EA302
 1.0000000000000000
     4.398000    0.000000    0.000000
    -0.001919    4.398000   -0.000000
     0.035942   -0.063471    4.219370
 H   O  
   8   4
Direct
  0.822143  1.034581  0.302604
  0.978913  0.745005  0.166570
  0.327105  1.035362  0.803845
  0.480759  0.744958  0.666429
  0.826893  0.534214  0.802952
  0.980761  0.244030  0.665331
  0.327057  0.535394  0.303918
  0.479870  0.244768  0.166014
  0.808463  0.882364  0.133868
  0.310713  0.883171  0.635308
  0.810613  0.382103  0.634339
  0.310198  0.383449  0.135207
EA430
 1.0000000000000000
     4.426000    0.000000   -0.000000
     0.022325    4.425944   -0.000000
    -0.011709   -0.038923    4.166802
 H   O  
   8   4
Direct
  0.311085  0.017374  0.105624
  0.308433  0.010105  0.471797
  0.300247  0.506670  0.621943
  0.311824  0.501795  0.987393
  0.786906  1.009165  0.946929
  0.936053  0.863210  0.649598
  0.957319  0.373310  0.139770
  1.097140  0.669008  0.273581
  0.444712 -0.004577  0.289349
  0.442389  0.503120  0.800014
  0.953333  1.033679  0.797210
  0.939941  0.521086  0.312999
EA747
 1.0000000000000000
     4.420000    0.000000    0.000000
    -0.000231    4.420000   -0.000000
     0.021355   -0.040231    4.175752
 H   O  
   8   4
Direct
  0.720411  0.647041  0.036290
  0.864612  0.935172  0.181783
  0.717485  0.448487  0.528583
  0.879045  0.165811  0.664256
  0.192654  0.927750  0.537993
  0.043825  0.643832  0.684190
  0.234989  0.422096  0.041496
  0.365235  0.128564  0.185456
  0.694498  0.797477  0.205545
  0.710134  0.303853  0.702584
  0.212113  0.783653  0.711157
  0.194520  0.267072  0.200261
EA519
 1.0000000000000000
     4.426000    0.000000    0.000000
     0.003244    4.425999    0.000000
     0.016946   -0.041321    4.166761
 H   O  
   8   4
Direct
  0.881177  0.170575  0.919077
  0.592743  0.025521  0.774827
  0.882905  0.680401  0.407905
  0.595081  0.523181  0.277184
  0.252880 -0.155629  0.581949
  0.406818 -0.008160  0.288869
  0.414964  0.644301  0.909803
  0.257781  0.360365  0.768398
  0.743583 -0.000308  0.942013
  0.750445  0.507511  0.441106
  0.237326  0.014494  0.436649
  0.241503  0.511631  0.938518
EA739
 1.0000000000000000
     4.423000    0.000000    0.000000
    -0.000309    4.423000   -0.000000
     0.021772   -0.040847    4.171743
 H   O  
   8   4
Direct
  0.087252  1.026891  0.932302
  0.243617  0.737300  0.800244
  0.589208  1.022119  0.438115
  0.743805  0.734400  0.300144
  0.433619  0.385605  0.936781
  0.718645  0.545196  0.803093
 -0.066351  0.385216  0.436436
  0.218772  0.544856  0.303079
  0.067801  0.867323  0.771565
  0.568733  0.865788  0.273951
  0.584033  0.374292  0.766203
  0.083240  0.374935  0.264954
EA654
 1.0000000000000000
     4.389000    0.000000   -0.000000
    -0.000383    4.389000    0.000000
     0.015603   -0.028765    4.236874
 H   O  
   8   4
Direct
  0.749930  0.740596  0.645305
  1.043187  0.872288  0.495349
  0.241678  0.375571  0.507352
  0.530149  0.223644  0.647974
  0.908664  0.070492  0.139109
  1.041075  0.367076 -0.002416
  0.553202  0.699208  1.133513
  0.407218  0.543577  0.842742
  0.894459  0.709408  0.472793
  0.376827  0.200668  0.484478
  0.872720  0.223233 -0.022226
  0.384641  0.716196  0.985950
EA252
 1.0000000000000000
     4.419000   -0.000000   -0.000000
     0.000000    4.419000   -0.000000
     0.000000    0.000000    4.180000
 H   O  
   8   4
Direct
  0.147375  0.261352  0.164622
  0.435986  0.416547  0.032383
  0.150046  0.760401  0.671109
  0.436516  0.915685  0.534098
  0.628388  0.390861  0.533910
  0.788120  0.105685  0.667549
  0.627977  0.891746  0.033975
  0.786840  0.606588  0.168957
  0.305485  0.240504  0.004089
  0.305389  0.739906  0.507444
  0.798378  0.255087  0.496876
  0.798475  0.756208 -0.001369
EA627
 1.0000000000000000
     4.420000   -0.000000    0.000000
     0.001851    4.420000   -0.000000
     0.020704   -0.044697    4.176710
 H   O  
   8   4
Direct
  0.583524  0.216365  0.129358
  0.292583  0.074766  0.271591
  1.119704  0.224045  0.615889
  0.774244  0.214473  0.602657
  1.080434  0.734150  0.093238
  1.086105  0.387885  0.102345
  0.614185  0.579157  0.754863
  0.466980  0.721286  0.456398
  0.437962  0.052864  0.097660
  0.950808  0.083188  0.608388
  0.947067  0.559179  0.104962
  0.448954  0.552894  0.603844
EA187
 1.0000000000000000
     5.642000   -0.000000   -0.000000
     0.000000    2.960000   -0.000000
     0.000000    0.000000    4.886000
 H   O  
   8   4
Direct
  0.681679  0.087004  0.278224
  0.788437  0.510053  0.148007
  0.225773  0.707685  0.330132
  0.293061  0.281320  0.488828
  1.137990  0.787081  0.830612
  0.972297  0.376802  0.825323
  0.636164  0.928803  0.823797
  0.473611  1.343599  0.824785
  0.701802  0.407776  0.307740
  0.212031  0.382233  0.324454
  0.972078  0.704615  0.819006
  0.470585  1.016788  0.823370
EA193
 1.0000000000000000
     4.338000   -0.000000   -0.000000
    -0.000076    4.338000   -0.000000
     0.001893   -0.003331    4.337998
 H   O  
   8   4
Direct
  0.114716  0.860736  0.720480
  0.234149  0.725623  1.027127
  0.581737  0.879789  0.201609
  0.592152  0.855688  0.552773
  0.456352  0.198929  0.718938
  0.746063  0.052628  0.867999
  0.964701  0.225869  0.209882
  0.961854  0.233544  0.562260
  0.069777  0.705600  0.876005
  0.570362  0.730374  0.367892
  0.606533  0.227322  0.883327
  1.100481  0.209425  0.387757
EA504
 1.0000000000000000
     4.338000   -0.000000   -0.000000
     0.000000    4.338000   -0.000000
     0.000000    0.000000    4.338000
 H   O  
   8   4
Direct
  0.391081  0.149181  0.510551
  0.382748 -0.201066  0.509278
 -0.135718  0.472737  0.654594
  0.214924  0.472012  0.670127
  0.540456  0.617227  0.189487
  0.543468  0.632399 -0.161323
 -0.108688  0.161277  0.018218
 -0.104512 -0.190811  0.016350
  0.526113 -0.029349  0.509197
  0.045694  0.471559  0.523414
  0.548259  0.486098  0.008066
  0.031961 -0.013227  0.020847
EA616
 1.0000000000000000
     4.414000    0.000000   -0.000000
     0.217700    4.408628   -0.000000
     0.062892   -0.249639    4.192103
 H   O  
   8   4
Direct
  0.737892  0.828117  0.881116
  0.583971  0.681690  0.587230
  1.069211  0.185635  0.573971
  0.911153  0.483172  0.718587
  0.220881  0.825963  0.399972
 -0.063555  0.675089  0.265741
  0.576196  0.188413  0.084579
  0.426819  0.492237  0.218898
  0.562977  0.850856  0.744499
  1.084210  0.342008  0.745159
  0.076290  0.833513  0.227264
  0.598525  0.350076  0.247637
EA596
 1.0000000000000000
     4.421000    0.000000   -0.000000
    -0.000077    4.421000   -0.000000
     0.021574   -0.041033    4.175743
 H   O  
   8   4
Direct
  0.665807  0.515207  0.345462
  0.955771  0.365380  0.476727
  0.181774  0.369866  0.979794
  0.469665  0.520423  0.840083
  0.165714  0.864697  0.475138
  0.454072  1.019783  0.341735
  0.796739  1.185070  0.844265
  0.649053  0.894185  0.977288
  0.818089  0.534351  0.511866
  0.319796  0.539872  1.010389
  0.296605  1.039997  0.504545
  0.816532  1.034107  1.010994
EA223
 1.0000000000000000
     4.458000   -0.000000    0.000000
    -0.000156    4.458000    0.000000
     0.003226   -0.005734    4.106995
 H   O  
   8   4
Direct
  0.393172  0.646784  0.710055
  0.406943  0.643102  0.339119
  0.908256  0.139538  0.706592
  0.907975  0.139045  0.335594
  0.907617  0.638729  0.205985
  0.907346  0.639746 -0.165002
  0.406897  0.144537  0.208590
  0.406889  0.144564 -0.162406
  0.403027  0.780695  0.523265
  0.907928  0.275202  0.521066
  0.906468  0.775142  0.021132
  0.407205  0.280429  0.023287
EA496
 1.0000000000000000
     4.418000    0.000000    0.000000
    -0.000077    4.418000    0.000000
     0.027006   -0.051383    4.181597
 H   O  
   8   4
Direct
  0.836076  0.237451  0.640299
  0.830106  0.583415  0.621704
  0.301384  0.418514  0.274344
  0.452889  0.569950 -0.016646
  0.329375  0.734851  0.617186
  0.330236  1.081416  0.631453
  0.817693  0.907423 -0.050458
  0.817679  0.907700  0.313612
  0.969509  0.412220  0.620196
  0.470967  0.398822  0.126250
  0.465989  0.907307  0.636480
  0.954412  0.907499  0.130547
EA720
 1.0000000000000000
     4.423000    0.000000    0.000000
    -0.000309    4.423000    0.000000
     0.021844   -0.040920    4.171742
 H   O  
   8   4
Direct
  0.769501  0.693669  0.582549
  0.916402  0.984337  0.450549
  0.264879  0.979303  0.113013
  0.265463  0.980253 -0.252230
  0.939988  0.504471 -0.068477
  0.593600  0.504254 -0.068718
  0.429750  0.470096  0.417816
  0.083155  0.472021  0.413319
  0.759553  0.834956  0.406372
  0.267631  0.843094 -0.071530
  0.766849  0.368458 -0.071700
  0.255203  0.336342  0.435463
EA425
 1.0000000000000000
     4.439000    0.000000    0.000000
    -0.000465    4.439000    0.000000
     0.012359   -0.022476    4.140921
 H   O  
   8   4
Direct
  0.609215  0.847341  0.817276
  0.470955  1.135864  0.670214
  0.470492  0.350040  0.183052
  0.618327  0.643021  0.312699
  0.135411  0.120338  0.977743
  0.136353  0.122300  1.345786
  0.138371  0.614938  0.476906
  0.138640  0.617818  0.845247
  0.635352  0.992255  0.643915
  0.633442  0.492264  0.141952
  0.139959 -0.014754  1.161910
  0.138702  0.479875  0.661598
EA446
 1.0000000000000000
     4.425000   -0.000000    0.000000
     0.021779    4.424946   -0.000000
    -0.010909   -0.039001    4.166803
 H   O  
   8   4
Direct
  0.225075 -0.004910  0.972285
  0.073770  0.289571  1.097682
  0.231834  0.503936  0.466454
  0.076000  0.793471  0.597843
  0.722291  0.651436  0.782918
  0.587506  0.807836  1.083859
  0.548016  0.292247  0.268037
  0.392163  0.009844  0.408931
  0.056981  0.133155  0.933029
  0.063781  0.642258  0.427776
  0.557435  0.638499  0.936699
  0.563073  0.145506  0.440000
EA807
 1.0000000000000000
     4.484000   -0.000000    0.000000
    -0.000235    4.484000    0.000000
     0.014448   -0.027125    4.057884
 H   O  
   8   4
Direct
  0.835420  0.162704  0.741869
  0.684879  0.450222  0.872847
  0.333237  0.677409  0.749664
  0.182665  0.965053  0.883820
  0.332173  0.299084  0.068424
  0.180547  0.150581  0.367332
  0.842178  0.660339  0.243660
  0.684859  0.944726  0.375632
  0.661543  0.290363  0.712414
  0.169302  0.815680  0.709427
  0.164582  0.319593  0.219588
  0.671992  0.790609  0.206531
EA649
 1.0000000000000000
     4.424000    0.000000   -0.000000
    -0.000077    4.424000    0.000000
     0.021033   -0.039955    4.169756
 H   O  
   8   4
Direct
  0.046268  0.361905  0.804478
  0.186216  0.654777  0.668204
  0.889051  0.842361  0.146596
  0.882153  1.188027  0.148734
  0.688290  1.149653  0.627770
  0.538113  0.861325  0.490366
  0.527022  0.384702 -0.034225
  0.529581  0.381810  0.331511
  0.028724  0.504718  0.629680
  1.021328  1.017957  0.139589
  0.510886  1.020527  0.650496
  0.550294  0.517919  0.150861
EA204
 1.0000000000000000
     4.413000    0.000000    0.000000
     0.178641    4.409383    0.000000
    -0.142763   -0.216878    4.193970
 H   O  
   8   4
Direct
  0.879150  0.092775  0.603056
  0.862566  0.439791  0.593924
  0.383429  0.591158  0.609777
  0.370241  0.936393  0.585478
  0.393321  0.250556  0.257852
  0.239538  0.101669 -0.042498
  0.885734  0.603194  0.109426
  0.883329  0.949561  0.104967
  0.734262  0.265189  0.601781
  0.240638  0.765009  0.606985
  0.217398  0.270423  0.113865
  0.748257  0.780520  0.103607
EA780
 1.0000000000000000
     4.424000    0.000000   -0.000000
    -0.000463    4.424000    0.000000
     0.021538   -0.039944    4.168753
 H   O  
   8   4
Direct
  0.703540  0.591451  0.875886
  0.702195  0.245833  0.878826
  0.174109  0.593827  0.375836
  0.175764  0.248016  0.381395
  0.663987  1.093769  0.378640
  0.662241  0.747056  0.390479
  0.172533  0.919971  1.060973
  0.172583  0.920868  0.695833
  0.566862  0.419167  0.877290
  0.038443  0.420275  0.380283
  0.527018  0.920746  0.376478
  0.035872  0.919717  0.879116
EA259
 1.0000000000000000
     4.377000   -0.000000    0.000000
     0.000000    4.377000   -0.000000
     0.000372   -0.000595    4.261000
 H   O  
   8   4
Direct
 -0.153865  0.292330  0.261880
  0.141584  0.442971  0.132085
  0.966599  0.638927  0.439206
  0.835321  0.926791  0.600281
  0.477598  0.934573 -0.031206
  0.332875  0.794176  0.267449
  0.346768  0.289132  0.762218
  0.643691  0.437790  0.637931
 -0.004825  0.280198  0.092614
  0.998226  0.776427  0.615738
  0.496646  0.765273  0.115786
  0.507998  0.263784  0.607044
EA878
 1.0000000000000000
     4.420000    0.000000    0.000000
    -0.000077    4.420000    0.000000
     0.021209   -0.040523    4.175750
 H   O  
   8   4
Direct
  0.621627  0.477070  0.432872
  0.339020  0.332030  0.275317
  0.608952  0.965422  0.911315
  0.316699  0.818951  0.777632
  0.975683  0.630102  0.582501
  0.968856  0.976169  0.582715
  0.827896  0.315547  1.100152
  1.111926  0.474034  0.962964
  0.486195  0.303780  0.445390
  0.461812  0.805416  0.951479
  0.969832  0.801976  0.439105
  0.978208  0.301499  0.929629
EA785
 1.0000000000000000
     4.424000    0.000000   -0.000000
    -0.000463    4.424000    0.000000
     0.021538   -0.039944    4.168753
 H   O  
   8   4
Direct
  0.976843  0.286889  0.346319
  0.968737  0.632948  0.345278
  0.971769  0.961119  1.028360
  0.971956  0.961930  0.663292
  0.481616  0.789097  0.359910
  0.482720  1.134952  0.332706
  0.441451  0.288583  0.845899
  0.441565  0.634358  0.846309
  1.109091  0.463099  0.346219
  1.108552  0.961406  0.845190
  0.618439  0.961673  0.346915
  0.577493  0.461441  0.846346
EA614
 1.0000000000000000
     4.413000   -0.000000    0.000000
     0.154165    4.410306    0.000000
     0.055084   -0.195213    4.192096
 H   O  
   8   4
Direct
  0.590262  0.671822  0.501858
  0.729226  0.952868  0.357351
  0.117854  0.833592  0.828849
  0.128053  0.821358  1.191540
  0.118158  0.333652  0.328395
  0.127694  0.322064  0.691130
  0.595606  0.165266  0.997233
  0.728809  0.451014  0.856475
  0.763628  0.802141  0.516822
  0.257852  0.845351  1.005677
  0.257653  0.346636  0.505572
  0.764878  0.300492  1.015854
EA530
 1.0000000000000000
     4.425000    0.000000   -0.000000
     0.010812    4.424987    0.000000
     0.006329   -0.041843    4.167785
 H   O  
   8   4
Direct
  0.404431  0.360598  1.021926
  0.411134  0.705894  1.010878
 -0.117586  0.704141  0.515177
 -0.117400  0.358400  0.514754
  0.413334  0.031797  0.332220
  0.413004  0.031639  0.697503
 -0.079011  0.204054  1.000811
 -0.077067 -0.141719  1.029647
  0.544306  0.530333  1.016797
  0.018402  0.531032  0.515301
  0.549808  0.031930  0.514806
  0.058189  0.031647  1.015202
EA876
 1.0000000000000000
     4.419000    0.000000    0.000000
    -0.000231    4.419000   -0.000000
     0.020646   -0.038810    4.179769
 H   O  
   8   4
Direct
  0.320811  0.779980  0.679687
  0.197806  1.079714  0.823371
  0.696524  0.575903  0.802499
  0.841357  0.281937  0.667875
  0.717879  0.927602  0.511832
  0.719294  0.936097  0.147749
  0.201774  0.604510  0.302262
  0.494337  0.449630  0.176741
  0.366354  0.937791  0.835636
  0.853128  0.426281  0.844523
  0.855283  0.933823  0.329671
  0.337745  0.435356  0.340752
EA778
 1.0000000000000000
     4.420000   -0.000000    0.000000
    -0.000386    4.420000    0.000000
     0.020782   -0.038645    4.177770
 H   O  
   8   4
Direct
  0.128036  0.950881  0.195055
  0.284318  0.659448  0.073401
  0.953946  0.302964  0.077894
  0.808269  0.147219  0.371656
  0.420830  0.161593  0.702395
  0.134154  0.309471  0.559725
  0.635237  0.797480  0.571457
  0.929095  0.664991  0.713222
  0.293242  0.812296  0.241636
  0.784508  0.316034  0.226441
  0.280297  0.329815  0.731955
  0.787671  0.833365  0.734319
EA267
 1.0000000000000000
     4.438000   -0.000000    0.000000
    -0.000852    4.438000    0.000000
     0.016053   -0.028414    4.142871
 H   O  
   8   4
Direct
  1.104815  0.132875  0.203803
  0.816963 -0.023251  0.331734
  0.608113  0.136500  0.707920
  0.319015 -0.021668  0.829423
  0.475365  0.812439  0.214494
  0.622656  0.655378  0.506689
 -0.024682  0.811950 -0.287175
  0.123477  0.656551  0.005526
  0.952070  0.145758  0.372417
  0.453442  0.146955  0.874578
  0.456671  0.638891  0.354893
 -0.042369  0.638651 -0.146272
EA749
 1.0000000000000000
     4.423000    0.000000    0.000000
    -0.000309    4.423000    0.000000
     0.021772   -0.040774    4.171744
 H   O  
   8   4
Direct
  0.840708  0.315714  0.372361
  0.696719  0.468735  0.077876
  0.344885  0.314262  0.867166
  0.196539  0.467750  0.575448
  0.540773  0.636254  0.692614
  0.832223  0.793289  0.573467
  0.041588  0.633581  0.193883
  0.331552  0.792165  0.072722
  0.677058  0.295974  0.218568
  0.178032  0.295620  0.717174
  0.677898  0.802999  0.740234
  0.176640  0.802663  0.238832
EA622
 1.0000000000000000
     4.418000   -0.000000    0.000000
     0.001696    4.418000   -0.000000
     0.022756   -0.048219    4.178660
 H   O  
   8   4
Direct
  0.595040  0.186757  0.864165
  0.583652  0.192556  0.499419
  0.231231  0.730665  0.700914
 -0.054012  0.573851  0.839335
  0.231412  0.230656  0.201239
 -0.053724  0.073662  0.339692
  0.591873  0.690860  0.360993
  0.582489  0.689696 -0.003574
  0.590410  0.052743  0.677775
  0.094820  0.560139  0.666970
  0.095161  0.059990  0.167378
  0.589937  0.553233  0.177604
EA463
 1.0000000000000000
     4.473000    0.000000   -0.000000
     0.011164    4.472986   -0.000000
     0.003987   -0.037101    4.078829
 H   O  
   8   4
Direct
  0.542506  0.073137  0.179362
  0.680451  0.198425  0.496800
  0.020019  0.706142  0.343910
  0.362180  0.707652  0.343974
  0.692561  0.698449  0.999007
  0.837427  0.412254  0.855605
  0.200379  0.224455  1.012105
  0.327709 -0.076227  0.877504
  0.694238  0.031301  0.343398
  0.191940  0.572615  0.342100
  0.666372  0.545541  0.831012
  0.179202  0.078899  0.835209
EA66
 1.0000000000000000
     5.184000   -0.000000   -0.000000
     0.000000    5.184000   -0.000000
     0.000000    0.000000    3.037000
 H   O  
   8   4
Direct
  0.204835  0.125769  0.108151
  0.215228  0.259247 -0.348088
  0.861273  0.356070  0.232782
  0.705065  0.185486  0.540817
  0.258258  0.625403  0.569546
  0.123161  0.791087  0.216562
  0.629117  0.824354 -0.296298
  0.762594  1.005665  0.033586
  0.206638  0.294271 -0.033986
  0.696069  0.347548  0.381455
  0.282253  0.777276  0.385204
  0.788838  0.847543 -0.133137
EA845
 1.0000000000000000
     4.423000   -0.000000    0.000000
    -0.000386    4.423000    0.000000
     0.021694   -0.040619    4.170746
 H   O  
   8   4
Direct
  0.742909  0.685851  0.804423
  0.583462  0.970828  0.673717
  0.222743  0.662290  0.296556
  0.092353  0.820366 -0.002027
  0.738523  0.193822 -0.012994
  0.578444  0.478639  0.124670
  0.400938  0.315134  0.489208
  0.111848  0.162579  0.622720
  0.763708  0.845901  0.647125
  0.258825  0.828167  0.149312
  0.749962  0.344903  0.157571
  0.249258  0.331295  0.658226
EA543
 1.0000000000000000
     4.417000    0.000000    0.000000
    -0.000617    4.417000    0.000000
     0.026860   -0.049628    4.181619
 H   O  
   8   4
Direct
  0.343982  0.294555  0.062701
  0.337074  0.640985  0.068617
  0.822381  0.609862  0.556280
  0.974440  0.321321  0.416261
  0.822493  0.111870  0.050120
  0.978529 -0.177798 -0.082061
  0.475294 -0.184765  0.414549
  0.327708  0.106207  0.554813
  0.476627  0.470210  0.072463
  0.990918  0.471167  0.587328
  0.996630 -0.020341  0.081292
  0.496930 -0.032719  0.582891
EA415
 1.0000000000000000
     4.556000   -0.000000    0.000000
     0.032681    4.555883   -0.000000
    -0.026009   -0.032206    3.931782
 H   O  
   8   4
Direct
  0.220862  1.019193  0.603453
  0.485535  0.957112  0.842201
  0.209356  0.397824  0.018933
  0.363543  0.537110  0.328265
  0.710575  0.404880  0.829500
  0.863637  0.267051  0.519005
  0.698905  0.903694  0.328439
  0.862621  0.767740  0.023256
  0.361265  0.867128  0.668644
  0.376137  0.372307  0.171065
  0.876755  0.429676  0.678911
  0.860952  0.937588  0.174295
EA166
 1.0000000000000000
     4.397000   -0.000000   -0.000000
     0.000000    4.397000   -0.000000
     0.000000    0.000000    4.223000
 H   O  
   8   4
Direct
  0.833288  0.441705  0.496495
  0.677072  0.157675  0.351578
  0.817325  0.797738 -0.133133
  0.680245  0.641486  0.162492
  0.327360  0.943971  0.542851
  0.172825  0.658266  0.684488
  0.334243  0.449232 -0.002556
  0.172956  0.165486 -0.141616
  0.660172  0.305348  0.522410
  0.651420  0.812045  0.018537
  0.151027  0.811333  0.519743
  0.159318  0.316360  0.026665
EA383
 1.0000000000000000
     4.420000    0.000000   -0.000000
     0.048291    4.419736   -0.000000
    -0.043616   -0.049050    4.178485
 H   O  
   8   4
Direct
  0.722987  0.423345  0.177239
  1.005381  0.558252  0.017809
  0.362244 -0.065412  0.340928
  0.215341  0.229186  0.213108
  0.207589  0.445556  0.701310
  0.348768  0.736446  0.849796
  0.862480 -0.067464  0.840296
  0.722356  0.083243  0.540412
  0.866594  0.588605  0.194729
  0.387893  0.092439  0.183529
  0.367490  0.592079  0.673017
  0.888079  0.100713  0.694549
EA404
 1.0000000000000000
     4.805000   -0.000000   -0.000000
     0.000000    4.805000   -0.000000
     0.000000    0.000000    3.535000
 H   O  
   8   4
Direct
  0.363688 -0.151136  0.689465
  0.462749  0.135086  0.831008
 -0.333307  0.423596  0.005522
 -0.059156  0.277620 -0.115449
  0.304046  0.659404  0.182297
  0.145710  0.481330  0.474195
  0.794185  0.061719  0.475543
  0.964369 -0.074664  0.159388
  0.307175  0.005855  0.845574
 -0.199627  0.410077 -0.200254
  0.321289  0.493894  0.338648
  0.801908 -0.103538  0.317861
EA587
 1.0000000000000000
     4.419000    0.000000   -0.000000
     0.000540    4.419000   -0.000000
     0.022902   -0.045077    4.178694
 H   O  
   8   4
Direct
  0.482258  0.096877  0.425166
  0.197414  0.250671  0.285960
  0.490406  0.932658  0.972867
  0.204486  0.778577  1.112715
  0.848735  0.905489  0.631212
  0.843589  0.907926  0.266582
  0.840162  0.405943  1.132426
  0.846138  0.397761  0.767453
  0.347895  0.270033  0.454336
  0.355357  0.760357  0.942913
  0.846333  0.769858  0.446268
  0.843596  0.264753  0.952180
EA155
 1.0000000000000000
     5.202000   -0.000000   -0.000000
     0.000000    5.202000   -0.000000
     0.000000    0.000000    3.016000
 H   O  
   8   4
Direct
  0.231069  0.937992 -0.027604
  0.422134  0.715046 -0.030085
  0.674075  0.392468  0.256087
  0.823075  0.232690 -0.080488
  0.117832  0.434240  0.481251
  0.332785  0.234131  0.463043
  0.729235  0.890691  0.747453
  0.918679  0.751627  0.439397
  0.260900  0.769589  0.104186
  0.665025  0.232274  0.090509
  0.165031  0.265164  0.595235
  0.757357  0.727906  0.596095
EA493
 1.0000000000000000
     4.410000    0.000000   -0.000000
    -0.001847    4.410000   -0.000000
     0.035380   -0.062540    4.196385
 H   O  
   8   4
Direct
  0.528653  0.911259  0.681732
  0.181400  0.900564  0.702763
  1.039484  0.892289  0.201097
  0.692669  0.905667  0.212704
  1.026847  0.401353  0.704259
  0.680214  0.394842  0.691093
  0.511189  0.534528  0.045330
  0.223136  0.382270  0.182914
  0.351224  1.042601  0.699938
  0.871415  1.034720  0.196200
  0.850949  0.535166  0.700304
  0.358418  0.555420  0.212624
EA50
 1.0000000000000000
     4.336000   -0.000000   -0.000000
     0.000000    4.336000   -0.000000
     0.000000    0.000000    4.341000
 H   O  
   8   4
Direct
  0.468818  0.881229  0.848087
  0.615468  0.589701  0.705067
 -0.031511  0.890428  0.357183
  0.104237  0.599043  0.203000
  0.269967  0.255735  0.023875
 -0.021848  0.400820 -0.122423
  0.768694  0.257183  0.524415
  0.476919  0.403606  0.378450
  0.638364  0.736008  0.873685
  0.135706  0.741128  0.373983
  0.124045  0.231945 -0.144908
  0.622428  0.234213  0.355802
EA60
 1.0000000000000000
     4.341000   -0.000000   -0.000000
     0.147334    4.338499    0.000000
     0.171790   -0.153253    4.334891
 H   O  
   8   4
Direct
  0.145397  0.914150  0.615266
  0.281543  0.625678  0.770183
  0.953569  0.433600  0.621016
  0.662926  0.277119  0.750174
  0.641791  0.908689  0.111321
  0.781373  0.623729  0.269196
  1.453994  0.431400  0.120292
  1.162732  0.276455  0.249974
  0.312474  0.758574  0.596263
  0.816794  0.264782  0.581085
  0.811836  0.756339  0.095030
  1.316176  0.263460  0.080519
EA99
 1.0000000000000000
     4.345000    0.000000    0.000000
    -0.113815    4.343509    0.000000
     0.153381   -0.372687    4.326269
 H   O  
   8   4
Direct
  0.227318  0.243024  0.690726
  0.100148  0.389202  0.408588
  0.600466  0.078553  0.176871
  0.720882  0.231073 -0.113716
  0.928006  0.737424 -0.103976
  1.221798  0.882980  0.042069
  0.418593  0.739587  0.388644
  0.561191  0.892700  0.685480
  0.060660  0.225172  0.545578
  0.548573  0.230504  0.035328
  1.073806  0.712953  0.057639
  0.591961  0.727902  0.522893
EA263
 1.0000000000000000
     4.385000   -0.000000   -0.000000
     0.000000    4.385000   -0.000000
     0.000000    0.000000    4.245000
 H   O  
   8   4
Direct
  0.568577  0.793339  0.681698
  0.425166  0.944888  0.977411
  0.067210  0.790792  0.177280
 -0.070078  0.949236  0.470262
  0.759526  0.106992  0.836144
  0.750151  0.455412  0.825121
  0.543185  0.312663  0.168240
  0.248044  0.437809  0.320607
  0.403780  0.773243  0.833873
 -0.094749  0.773079  0.332934
  0.891713  0.284821  0.825038
  0.395244  0.271973  0.333816
EA279
 1.0000000000000000
     4.869000   -0.000000   -0.000000
     0.000000    4.869000   -0.000000
     0.000000    0.000000    3.443000
 H   O  
   8   4
Direct
  0.858580  0.050564  0.209694
  0.713653 -0.122975 -0.101269
  0.223147  0.828751  0.381366
  0.489100  0.679435  0.509735
  0.342707  0.192256  0.243831
  0.332422  0.242831 -0.193437
 -0.170402  0.233949  0.710310
 -0.018549  0.387585  0.385784
  0.881799 -0.112011  0.049218
  0.376479  0.840678  0.561264
  0.325332  0.339070  0.054509
 -0.185107  0.393181  0.541042
EA673
 1.0000000000000000
     3.436000   -0.000000   -0.000000
     0.000000    3.257000   -0.000000
     0.000000    0.000000    7.294000
 H   O  
   8   4
Direct
  0.456737  0.142348  0.213180
  0.019191  0.181977  0.169326
  0.920486  0.897663  0.445666
  0.587856  0.582320  0.442333
  0.919750  0.902282  0.945530
  0.596220  0.576029  0.942573
  0.415613  0.410764  0.692180
  0.086504  0.090883  0.692939
  0.277363  0.241896  0.119718
  0.765313  0.732375  0.363117
  0.746704  0.755667  0.863006
  0.258959  0.241205  0.611307
EA284
 1.0000000000000000
     4.367000    0.000000    0.000000
     0.001905    4.367000   -0.000000
     0.050744   -0.102474    4.280473
 H   O  
   8   4
Direct
  0.415037  0.893675  0.293254
  0.260047  1.038161  0.008067
  0.906826  0.216715  0.150960
  0.764349  0.503595  0.003988
  0.232166  0.201526  0.518080
  0.245838  0.550926  0.512908
  0.900067  0.716026  0.651445
  0.770937  1.011350  0.510046
  0.236698  0.876074  0.159473
  0.739875  0.363028  0.175926
  0.239463  0.381185  0.656309
  0.729886  0.859467  0.667998
EA645
 1.0000000000000000
     4.418000    0.000000   -0.000000
    -0.000463    4.418000   -0.000000
     0.020062   -0.036985    4.179788
 H   O  
   8   4
Direct
  0.284401  0.589669  0.446386
  0.568431  0.433597  0.303162
  0.786044  1.084869  0.439303
  1.079267  0.942737  0.299904
  0.747860  0.444117  0.815504
  0.899138  0.593310  1.111259
  0.550587  0.753408  0.976299
  0.567918  1.099172  0.967612
  0.419917  0.417969  0.474423
  0.927357  0.917560  0.466756
  0.910783  0.418998  0.968224
  0.423442  0.933067  0.966778
EA45
 1.0000000000000000
     3.797000   -0.000000   -0.000000
     0.000000    4.636000   -0.000000
     0.000000    0.000000    4.636000
 H   O  
   8   4
Direct
  0.251344  0.804730  0.900132
 -0.033462  0.954337  0.714176
  0.601076  0.299525  1.050692
  0.467514  0.450512  0.774498
  0.764362  0.797835  0.389103
  0.772587  1.128889  0.391813
  0.283594  0.477586  0.281535
  0.149729  0.635744  0.553741
  0.115700  0.981401  0.882456
  0.624704  0.475870  0.937996
  0.613640  0.966237  0.369674
  0.113906  0.462782  0.437860
EA781
 1.0000000000000000
     4.422000    0.000000    0.000000
    -0.000386    4.422000   -0.000000
     0.021486   -0.040201    4.172751
 H   O  
   8   4
Direct
  0.314110  0.831061  1.038456
  0.608428  0.952405  0.886058
  0.465040  0.343236  0.733843
  0.463572  0.343205  0.368832
  0.795778  1.121591  0.567738
  0.946937  0.831239  0.699655
  0.809482  0.346352  0.062234
  0.955496  0.639100  0.195155
  0.458991  0.996771  1.051813
  0.473044  0.479081  0.552472
  0.959507  0.978514  0.528551
  0.975564  0.487489  0.026305
EA161
 1.0000000000000000
     4.416000    0.000000    0.000000
    -0.001696    4.416000   -0.000000
     0.031189   -0.054987    4.184523
 H   O  
   8   4
Direct
  0.872545  0.468868 -0.037427
  1.020465  0.186044  0.110980
  0.997437  0.822992  0.454314
  0.997648  0.827864  0.818154
  0.375315  0.464665  0.475775
  0.536405  0.179942  0.605539
  0.376055  0.971001 -0.023022
  0.519396  0.680564  0.112948
  0.851713  0.326817  0.137218
  0.860835  0.825403  0.637206
  0.363629  0.313296  0.642823
  0.347887  0.817743  0.139453
EA280
 1.0000000000000000
     4.869000   -0.000000   -0.000000
     0.000000    4.869000   -0.000000
     0.000000    0.000000    3.443000
 H   O  
   8   4
Direct
  0.851608  0.030723  0.224677
  0.710095 -0.130293 -0.103673
  0.344542  0.721337  0.766777
  0.209607  0.840303  0.394915
  0.346802  0.211460  0.259897
  0.339804  0.220661 -0.179649
 -0.154584  0.225238  0.721521
 -0.008922  0.376851  0.388735
  0.875712 -0.125880  0.053035
  0.377984  0.843190  0.546611
  0.330006  0.340302  0.046067
 -0.172617  0.382703  0.549687
EA523
 1.0000000000000000
     4.418000    0.000000   -0.000000
    -0.001542    4.418000    0.000000
     0.029561   -0.052103    4.181571
 H   O  
   8   4
Direct
  0.697220  1.054057  0.202923
  0.979780  0.895516  0.342299
  0.348140  0.513590 -0.001467
  0.342276  0.512584  0.362542
  0.488174  0.890975  0.840695
  0.197826  1.034799  0.704649
  0.993214  0.386755  0.850800
  0.707452  0.536080  0.708834
  0.830753  0.880471  0.172164
  0.346233  0.376458  0.178539
  0.334350  0.863009  0.677830
  0.847447  0.367277  0.678440
EA495
 1.0000000000000000
     4.461000    0.000000    0.000000
     0.009110    4.460991    0.000000
     0.011810   -0.046762    4.100716
 H   O  
   8   4
Direct
  0.759258  0.542405  0.307387
  0.459886  0.423499  0.168242
 -0.025552  0.070509  0.008685
  0.263901 -0.076401  0.139558
  0.779336  0.065348  0.495186
  0.494852 -0.091585  0.629035
 -0.041771  0.726599  0.640441
  0.109306  0.440106  0.498025
  0.601833  0.588020  0.151113
  0.131122  0.095235  0.171087
  0.633817  0.072395  0.672197
  0.131022  0.595108  0.664389
EA171
 1.0000000000000000
     4.340000   -0.000000   -0.000000
     0.000000    4.375000   -0.000000
     0.000000    0.000000    4.299000
 H   O  
   8   4
Direct
  0.391477  0.747892  0.537567
  0.668832  0.909761  0.379130
  0.888033  0.755059  0.696542
  1.174051  0.893114  0.860226
  0.360835  0.379660  0.857797
  0.502655  0.097041  0.696640
  1.044491  0.371294  0.528496
  1.183596  0.084226  0.371676
  0.526783  0.739410  0.357586
  1.036604  0.717108  0.861964
  0.524021  0.228834  0.877539
  1.013274  0.228642  0.357755
EA549
 1.0000000000000000
     4.421000    0.000000    0.000000
     0.008796    4.420991   -0.000000
     0.010860   -0.045137    4.175742
 H   O  
   8   4
Direct
  0.513250  0.071114  0.511115
  0.658958  0.362721  0.651670
  0.339837  0.905685  0.162310
  0.347008  0.560578  0.172323
 -0.180205  0.859247  0.708521
 -0.022611  0.574132  0.842621
 -0.172854  0.219879  0.310816
  0.171501  0.234103  0.337943
  0.498355  0.216401  0.686928
  0.479530  0.735687  0.167621
 -0.018262  0.714783  0.664964
  0.009334  0.236882  0.181239
EA327
 1.0000000000000000
     4.445000    0.000000    0.000000
    -0.000465    4.445000    0.000000
     0.009368   -0.016502    4.128956
 H   O  
   8   4
Direct
  0.242057 -0.041588  0.113995
  0.093668  0.247610  0.251115
  0.232047  0.427440  0.602015
  0.233197  0.771369  0.591589
  0.733006  0.426398  0.102693
  0.734586  0.770304  0.092586
  0.740155 -0.039178  0.617883
  0.590638  0.250124  0.752648
  0.068063  0.090562  0.088529
  0.097261  0.599867  0.592752
  0.598360  0.599077  0.094528
  0.566442  0.092794  0.590215
EA83
 1.0000000000000000
     4.345000    0.000000    0.000000
    -0.113815    4.343509    0.000000
     0.153381   -0.372687    4.326269
 H   O  
   8   4
Direct
  0.086920  0.177943  0.717695
  0.204985  0.339418  0.431587
  0.579097  0.180685  0.217975
  0.704714  0.338248 -0.068021
  0.896939  0.856545 -0.087609
  1.035902  1.001869  0.215569
  0.396811  0.856644  0.411798
  0.535468  1.003611  0.714389
  0.033813  0.333756  0.581257
  0.531245  0.336304  0.079351
  1.065659  0.837812  0.051354
  0.565852  0.839222  0.550644
EA294
 1.0000000000000000
     4.419000    0.000000   -0.000000
     0.022366    4.418943    0.000000
    -0.015320   -0.032169    4.179848
 H   O  
   8   4
Direct
  0.693145  0.557518  1.160358
  0.407965  0.714123  1.020689
  0.696224  0.061490  0.653366
  0.407589  0.214729  0.517806
  0.196254  0.061472  1.153245
 -0.092515  0.214554  1.017812
  0.196216  0.560770  0.656347
 -0.091513  0.714952  0.519638
  0.544411  0.542556  0.988777
  0.544577  0.043760  0.485069
  0.044658  0.043770  0.984887
  0.044873  0.543353  0.487663
EA200
 1.0000000000000000
     4.342000    0.000000    0.000000
    -0.181597    4.338201    0.000000
     0.049083   -0.263658    4.331706
 H   O  
   8   4
Direct
  0.932275  0.969408  0.646429
  0.775799  0.820894  0.351821
  0.798974  0.302881 -0.124332
  0.926119  0.135115  0.149539
  0.310602  0.989629  0.013131
  0.312963  0.638265  0.010927
  0.299117  0.287935  0.379672
  0.440824  0.143445  0.660749
  0.948461  0.801240  0.489224
  0.973157  0.302564  0.015083
  0.450311  0.820345  0.006213
  0.468298  0.313899  0.525946
EA722
 1.0000000000000000
     4.422000   -0.000000   -0.000000
    -0.000232    4.422000   -0.000000
     0.021850   -0.041221    4.172739
 H   O  
   8   4
Direct
  0.350822  0.726119  0.592807
  0.352839  0.725981  0.958250
  0.681368  0.983952  0.303565
  0.839523  0.700126  0.440234
  0.525125  0.487067  0.295825
  0.362687  0.210204  0.442707
  0.839458  0.502524  0.931057
  0.687973  0.212242  0.797565
  0.356792  0.862949  0.776936
  0.848934  0.844305  0.265943
  0.348779  0.357213  0.271256
  0.856281  0.350410  0.762071
EA847
 1.0000000000000000
     4.424000   -0.000000   -0.000000
    -0.000386    4.424000    0.000000
     0.021616   -0.040391    4.169748
 H   O  
   8   4
Direct
  0.606441  0.637601  0.182246
  0.952365  0.627875  0.192945
  0.270247  0.623106  0.509409
  0.269815  0.621752  0.874430
  0.110897  0.133110  0.190431
  0.456851  0.133996  0.209677
  0.917492  0.090118  0.711332
  0.629509  0.247319  0.844374
  0.782942  0.769061  0.193936
  0.262875  0.758903  0.694056
  0.284459  0.269208  0.185813
  0.783194  0.261269  0.677462
EA293
 1.0000000000000000
     4.419000   -0.000000    0.000000
     0.000000    4.419000    0.000000
     0.000146   -0.000219    4.180000
 H   O  
   8   4
Direct
  0.474796  0.386167  0.087996
  0.187543  0.229367  0.220684
  0.976338  0.381593  0.583768
  0.688221  0.229277  0.720348
  0.977262  0.883833  0.083511
  0.689495  0.729885  0.218776
  0.477297  0.881722  0.582674
  0.189119  0.729179  0.718689
  0.339748  0.214675  0.053211
  0.839193  0.211357  0.551906
  0.840874  0.713182  0.050637
  0.340253  0.711507  0.550442
EA368
 1.0000000000000000
     4.422000   -0.000000   -0.000000
    -0.001158    4.422000    0.000000
     0.022073   -0.038896    4.173760
 H   O  
   8   4
Direct
  0.133018  0.276402  0.224239
 -0.151874  0.121716  0.083433
  0.636339  0.773650  0.218823
  0.348690  0.620783  0.082278
  0.636902  0.273392  0.717571
  0.348586  0.120581  0.582534
  0.136945  0.773442  0.717728
 -0.151308  0.620725  0.582434
 -0.001676  0.103869  0.251851
  0.499061  0.603811  0.250615
  0.499676  0.103642  0.750154
 -0.000257  0.603639  0.750087
EA226
 1.0000000000000000
     4.357000    0.000000   -0.000000
    -0.159049    4.354096    0.000000
     0.042556   -0.228642    4.301718
 H   O  
   8   4
Direct
  0.331854  0.797792  0.546109
  0.470674  1.086198  0.394015
  0.834547  0.295545  0.545408
  0.971014  0.585575  0.394302
  0.837716  0.796074  0.045184
  0.972051  1.087510 -0.104787
  0.337851  0.296028  0.045507
  0.471301  0.588080 -0.103960
  0.502354  0.948150  0.560888
  1.003543  0.447487  0.560973
  1.006429  0.948307  0.060423
  0.506608  0.448234  0.060465
EA310
 1.0000000000000000
     4.294000   -0.000000   -0.000000
     0.000000    4.294000   -0.000000
     0.000000    0.000000    4.427000
 H   O  
   8   4
Direct
 -0.091392  0.435796  0.122570
  0.064779  0.570679 -0.164558
  0.417974 -0.068659  0.122750
  0.566127  0.072820 -0.165591
 -0.081641 -0.066864  0.621094
  0.064883  0.075855  0.332629
  0.420747  0.429686  0.621216
  0.564189  0.575673  0.332736
 -0.107255  0.603546 -0.024657
  0.395558  0.100058 -0.022882
 -0.105443  0.101908  0.475823
  0.394741  0.599366  0.477265
EA80
 1.0000000000000000
     4.116000   -0.000000   -0.000000
     0.000000    4.734000   -0.000000
     0.000000    0.000000    4.188000
 H   O  
   8   4
Direct
  0.977175  0.941669  0.572556
  0.607800  0.934480  0.584452
  0.152046  0.452155  0.564180
  0.441597  0.301292  0.402976
  0.303270  0.961314 -0.069467
  0.455009  0.809077  0.221181
  0.793839  0.149573 -0.083158
  0.787761  0.474701 -0.095002
  0.796168  0.809980  0.580026
  0.284626  0.281242  0.574758
  0.279952  0.795380  0.066275
  0.782982  0.316128  0.053115
EA455
 1.0000000000000000
     4.556000   -0.000000   -0.000000
     0.032602    4.555883    0.000000
    -0.025879   -0.032215    3.932783
 H   O  
   8   4
Direct
  1.030199  0.756591  0.117738
  0.743978  0.904276  0.246281
  1.018817  0.248355  0.611374
  0.738657  0.403179  0.746655
  0.375363  0.067691  0.114212
  0.531910  0.210930  0.421691
  0.378276  0.567697  0.614867
  0.538374  0.711068  0.920213
  0.869970  0.732303  0.277474
  0.863293  0.230384  0.778248
  0.364370  0.233793  0.269918
  0.370365  0.734921  0.769290
EA655
 1.0000000000000000
     4.415000    0.000000   -0.000000
     0.122504    4.413300    0.000000
     0.047094   -0.161264    4.186631
 H   O  
   8   4
Direct
  0.736157  0.226334  0.332463
  0.874201  0.376755  0.039826
  0.719223  0.572654  0.662214
  0.872731  0.853880  0.527601
  0.218614  0.572045  0.163524
  0.372519  0.853281  0.029560
  0.238663  0.220685  0.836589
  0.370814  0.377508  0.544710
  0.906092  0.210341  0.182670
  0.884505  0.710900  0.699400
  0.383318  0.710713  0.201767
  0.407031  0.209616  0.684678
EA590
 1.0000000000000000
     4.420000    0.000000   -0.000000
     0.000926    4.420000    0.000000
     0.019975   -0.040829    4.176753
 H   O  
   8   4
Direct
  0.738419  0.715347  0.986103
  0.893487  1.001126  0.849396
  0.082749  0.875320  0.478771
  0.371681  1.031270  0.349049
  0.209274  0.212478  0.986700
  0.052204  0.498061  0.852523
  0.865386  0.375706  0.479366
  0.577804  0.531926  0.349224
  0.729950  0.858129  0.810563
  0.237585  0.859725  0.313005
  0.216935  0.356274  0.811852
  0.712277  0.360399  0.313238
EA565
 1.0000000000000000
     5.095000   -0.000000   -0.000000
     0.000000    5.095000   -0.000000
     0.000000    0.000000    3.144000
 H   O  
   8   4
Direct
 -0.103443  0.144407  0.448701
 -0.107996  0.447851  0.463913
  0.666973 -0.038647 -0.191619
  0.623276 -0.186229  0.232653
  0.177188  0.634842  0.310367
  0.125321  0.767518  0.746045
  0.237271  0.127452 -0.158099
  0.277832  0.278807  0.264692
 -0.221442  0.294034  0.474164
  0.616685 -0.208324 -0.075487
  0.117389  0.797869  0.439874
  0.279565  0.300313 -0.043782
EA450
 1.0000000000000000
     4.147000    0.000000   -0.000000
     0.000145    4.147000   -0.000000
     0.018389   -0.035784    4.745829
 H   O  
   8   4
Direct
  0.481145  0.862400  0.200020
  0.465684  0.854191 -0.124407
  0.967994  0.855510  0.700995
  0.967066  0.854265  0.376328
  0.960982  0.357734  0.201398
  0.963390  0.354772 -0.123356
  0.465055  0.356231  0.699874
  0.464564  0.354952  0.375176
  0.466624  1.002548  0.036210
  0.963875  0.999376  0.539149
  0.969423  0.500572  0.038927
  0.468831  0.500007  0.537996
EA324
 1.0000000000000000
     4.408000   -0.000000    0.000000
     0.016079    4.407971    0.000000
     0.000220   -0.045155    4.199757
 H   O  
   8   4
Direct
  0.564477  0.599004  0.943662
  0.409217  0.314053  1.081448
  1.060118  0.602417  0.445260
  0.907186  0.315437  0.580838
  1.060007  0.104615  0.942783
  0.909974 -0.182377  1.082069
  0.559799  0.101061  0.445650
  0.407939 -0.186347  0.581652
  0.392138  0.463582  0.913283
  0.889654  0.465174  0.413021
  0.890276 -0.034049  0.913061
  0.389377 -0.036429  0.414083
EA168
 1.0000000000000000
     4.338000   -0.000000    0.000000
    -0.002650    4.337999   -0.000000
     0.051874   -0.091443    4.337726
 H   O  
   8   4
Direct
  0.460313  0.316952  0.661191
  0.591021  0.170096  0.955851
  0.460245  0.847037  0.159440
  0.753356  0.998517  0.296538
 -0.028666  0.339827  0.143988
 -0.034898  0.334020  0.496271
  1.266617  0.660361  0.823122
  1.255594  1.012403  0.816537
  0.618635  0.342268  0.817573
  0.609582  0.828688  0.323274
  0.106563  0.327712  0.320888
  1.122725  0.832158  0.826015
EA37
 1.0000000000000000
     4.779000   -0.000000   -0.000000
     2.054401    4.314890    0.000000
     0.670146   -2.594441    3.957097
 H   O  
   8   4
Direct
  0.687330 -0.252619  0.431649
  0.511391  0.169926  0.580023
  0.318153  0.312496  0.299404
  0.315418  0.633436  0.297202
  0.802841  0.326002  0.796875
  0.812327  0.641321  0.794777
  0.077473 -0.193934  0.026706
  0.039431  0.159027  0.062666
  0.485953 -0.036583  0.466116
  0.234471  0.471249  0.215163
  0.726374  0.484474  0.712478
 -0.023813 -0.017963 -0.037036
EA886
 1.0000000000000000
     4.421000   -0.000000    0.000000
     0.000000    4.421000   -0.000000
     0.021350   -0.040805    4.174746
 H   O  
   8   4
Direct
  0.714715  0.822995  0.320608
  1.002039  0.951974  0.157539
  0.202846  0.309212  0.309808
  0.495742  0.454719  0.176544
  0.488556  0.977196  0.625313
  0.208680  0.809281  0.489399
  0.999317  0.140040  0.684474
  0.702140  0.284525  0.809624
  0.861557  0.781939  0.151124
  0.356874  0.285815  0.144168
  0.355802  0.805087  0.661922
  0.850307  0.295634  0.637114
EA848
 1.0000000000000000
     4.415000   -0.000000    0.000000
    -0.000308    4.415000   -0.000000
     0.019438   -0.036317    4.186797
 H   O  
   8   4
Direct
 -0.066401  0.266480  0.241046
  0.226651  0.418832  0.364472
  0.720601  0.406495  0.868176
  0.435844  0.245207  0.733250
  0.907969  1.061874  0.732498
  1.063713  0.774271  0.863135
  0.443725  1.092758  0.230866
  0.727868  0.933891  0.367623
  0.077689  0.427502  0.194269
  0.571686  0.415587  0.697729
  1.079937  0.927030  0.697658
  0.579481  0.921143  0.196952
EA251
 1.0000000000000000
     4.432000   -0.000000   -0.000000
    -0.033803    4.431871    0.000000
     0.001595   -0.069822    4.154413
 H   O  
   8   4
Direct
  0.558160  0.216354  0.100383
  0.410121  0.511299  0.224048
  0.566396  0.721552  0.588285
  0.414096  1.010226  0.724257
  1.065834  0.719795  0.086560
  0.913329  1.007958  0.223185
  1.066652  0.220392  0.586304
  0.913332  0.508036  0.723142
  0.396496  0.357621  0.055039
  0.397372  0.857237  0.554731
  0.895529  0.854173  0.054665
  0.896856  0.355230  0.553463
EA461
 1.0000000000000000
     4.502000    0.000000    0.000000
     0.019722    4.501957    0.000000
    -0.008223   -0.035598    4.026834
 H   O  
   8   4
Direct
  0.674294  0.170100  0.645297
  0.395649  0.008671  0.777099
  0.704600  0.677055  0.137696
  0.410756  0.534479  0.253032
 -0.106102  0.021451  0.321661
  0.176069  0.175773  0.457618
  0.042914  0.517304  0.941089
  0.039622  0.857680  0.940221
  0.515842  0.186095  0.808699
  0.555599  0.686961  0.312316
  0.021654  0.192977  0.289494
  0.051254  0.686030  0.792683
EA816
 1.0000000000000000
     4.503000    0.000000    0.000000
     0.000157    4.503000    0.000000
     0.011872   -0.022972    4.024917
 H   O  
   8   4
Direct
  0.035505  0.268737  0.638509
  0.321843  0.411231  0.783091
  0.529446  0.776785  0.650310
  0.819761  0.915116  0.789215
  0.023706  0.754028  0.158981
  0.168745  0.599581  0.457977
  0.523296  0.252707  0.156467
  0.668987  0.098063  0.455144
  0.180933  0.249130  0.815085
  0.682604  0.749223  0.816928
  0.190406  0.769197  0.311253
  0.690668  0.267414  0.307926
EA884
 1.0000000000000000
     4.422000   -0.000000    0.000000
    -0.000154    4.422000    0.000000
     0.021558   -0.040712    4.172746
 H   O  
   8   4
Direct
  0.117023  0.975806  0.857081
  0.091155  0.630581  0.845563
  0.235949  0.459861  0.500634
  0.091085  0.166022  0.368651
  0.729833  0.960999  0.504732
  0.581064  0.673246  0.361158
  0.609700  0.467434  0.871443
  0.897956  0.317792  1.007918
  0.239684  0.792908  0.844841
  0.252267  0.311488  0.328362
  0.749758  0.812627  0.332654
  0.751897  0.301737  0.835195
EA39
 1.0000000000000000
     4.341000   -0.000000   -0.000000
     0.147334    4.338499    0.000000
     0.171790   -0.153253    4.334891
 H   O  
   8   4
Direct
  0.217383  0.898360  0.522395
  0.081735  0.743210  0.811054
  0.885944  0.395719  0.688068
  0.593991  0.243854  0.820870
  0.713609  0.895954  0.017293
  0.580597  0.744358  0.309385
  1.385642  0.396591  0.188065
  1.094222  0.244118  0.321356
  0.248351  0.724018  0.654751
  0.750666  0.224121  0.654598
  0.746971  0.724496  0.152795
  1.251023  0.224371  0.155224
EA74
 1.0000000000000000
     4.357000    0.000000   -0.000000
    -0.491186    4.329225   -0.000000
     0.000000   -0.494338    4.328866
 H   O  
   8   4
Direct
  0.840824  0.547274  1.004906
  0.845677  0.557672  0.655027
  0.341457  0.543696  0.504830
  0.345800  0.557811  0.155427
  0.849745  0.039644  0.514981
  0.855637  0.050960  0.165135
  0.349864  0.039732  0.014935
  0.355712  0.050900 -0.334924
  0.705107  0.555490  0.829002
  0.205563  0.554442  0.329632
  0.714614  0.048893  0.338748
  0.214703  0.048852 -0.161306
EA285
 1.0000000000000000
     4.445000   -0.000000   -0.000000
     0.000000    4.445000   -0.000000
     0.000000    0.000000    4.132000
 H   O  
   8   4
Direct
  0.246384 -0.055820  0.167766
  0.098083  0.234632  0.035615
  0.751192  0.446884  0.170968
  0.599116  0.734087  0.035372
  0.752765 -0.052716  0.670367
  0.599248  0.233927  0.535273
  0.253319  0.447529  0.670452
  0.100057  0.734457  0.535547
  0.079810  0.082911  0.204136
  0.580976  0.582036  0.203568
  0.582305  0.082010  0.703763
  0.083119  0.582537  0.704039
EA426
 1.0000000000000000
     4.426000    0.000000    0.000000
     0.025646    4.425926   -0.000000
    -0.016501   -0.038577    4.164789
 H   O  
   8   4
Direct
  0.122302  0.265906  0.713792
  0.081018  0.237746  1.076196
  0.746477  0.884205  0.746100
  0.601207  1.040464  1.041375
  0.945590  1.044209  0.421367
  1.233648  0.896307  0.566401
  0.449202  0.538335  0.418895
  0.736698  0.392754  0.565150
  0.080603  0.386177  0.905442
  0.577117  0.870831  0.893751
  1.088074  0.877846  0.392162
  0.590676  0.370292  0.391430
EA644
 1.0000000000000000
     4.421000    0.000000   -0.000000
     0.000849    4.421000    0.000000
     0.020330   -0.041319    4.174746
 H   O  
   8   4
Direct
  0.648238  0.566738  1.032289
  0.498547  0.429561  0.729243
  0.512334 -0.054962  0.549279
  0.671992  0.227164  0.409456
  0.834852  0.741429  0.351910
  0.985980  0.446323  0.226403
 -0.169096  0.236827  0.858701
 -0.014707 -0.055421  0.732802
  0.486468  0.599082  0.879158
  0.501840  0.090647  0.376348
  0.987215  0.590689  0.403404
  0.004071  0.104753  0.892994
EA883
 1.0000000000000000
     4.421000    0.000000   -0.000000
    -0.000386    4.421000    0.000000
     0.021350   -0.040075    4.174753
 H   O  
   8   4
Direct
  0.450686  0.298987  0.732381
  0.797062  0.305731  0.731134
 -0.051576  0.804665  0.729925
  0.295118  0.803444  0.730859
  0.947675  0.308454  0.229201
  1.294392  0.308590  0.232137
  0.447736 -0.192164  0.229255
  0.794428 -0.191590  0.231791
  0.621236  0.439131  0.730131
  0.122292  0.940745  0.729700
  1.121028  0.445113  0.229470
  0.620897 -0.055279  0.229402
EA152
 1.0000000000000000
     5.202000   -0.000000   -0.000000
     0.000000    5.202000   -0.000000
     0.000000    0.000000    3.016000
 H   O  
   8   4
Direct
  0.191570  0.967942  0.044131
  0.377678  0.755696 -0.102848
  0.640481  0.397924  0.197823
  0.796061  0.235712 -0.127778
  0.082325  0.456378  0.485402
  0.301076  0.264444  0.398553
  0.692092  0.895191  0.694398
  0.877074  0.751731  0.383250
  0.218630  0.782937  0.060032
  0.635311  0.236317  0.035922
  0.139706  0.283131  0.558133
  0.715202  0.732610  0.540122
EA191
 1.0000000000000000
     4.461000    0.000000    0.000000
     0.027718    4.460914    0.000000
    -0.025481   -0.025323    4.100843
 H   O  
   8   4
Direct
  0.031660  0.944575 -0.019196
  0.188629  0.660262  0.117102
  0.538008  0.948062  0.483548
  0.690055  0.660683  0.617985
  0.037508  0.446457  0.483231
  0.190217  0.159663  0.618280
  0.538308  0.447958 -0.016493
  0.689899  0.160453  0.118269
  0.017867  0.794363  0.150951
  0.519985  0.795816  0.651037
  0.019729  0.294312  0.650865
  0.520142  0.295948  0.151235
EA123
 1.0000000000000000
     4.374000   -0.000000   -0.000000
     0.000000    4.809000   -0.000000
     0.000000    0.000000    3.880000
 H   O  
   8   4
Direct
 -0.020128  0.228169  0.278381
 -0.158525  0.509655  0.394323
  0.488174  0.535287  1.093574
  0.344078  0.380342  0.787376
  0.974984  1.055991  0.794734
  0.816334  0.892774  1.087172
  0.349285  1.030685  0.454322
  0.636855  0.882003  0.594601
  0.003947  0.376873  0.446511
  0.513776  0.372755  0.947609
  0.992538  0.889467  0.935399
  0.472370  0.862547  0.428097
EA122
 1.0000000000000000
     4.374000   -0.000000   -0.000000
     0.000000    4.809000   -0.000000
     0.000000    0.000000    3.880000
 H   O  
   8   4
Direct
  0.061843  0.135647  0.256039
 -0.079704  0.417889  0.364143
  0.564732  0.456436  1.066339
  0.424124  0.298478  0.760463
  1.050211  0.967833  0.768378
  0.887785  0.807494  1.060550
  0.419650  0.950105  0.427400
  0.707455  0.802412  0.568784
  0.084438  0.287652  0.419844
  0.593923  0.294200  0.920720
  1.064223  0.801162  0.909269
  0.543589  0.782657  0.401573
EA101
 1.0000000000000000
     4.374000   -0.000000   -0.000000
     0.000000    4.809000   -0.000000
     0.000000    0.000000    3.880000
 H   O  
   8   4
Direct
  0.017492  0.177144  0.238841
 -0.117952  0.461810  0.347833
  0.527965  0.495556  1.046339
  0.385480  0.338293  0.740981
  1.014991  1.008737  0.748537
  0.853603  0.847606  1.040639
  0.385841  0.990006  0.407810
  0.673971  0.841957  0.547919
  0.044492  0.329305  0.401603
  0.555304  0.332788  0.901168
  1.030016  0.842122  0.889345
  0.509570  0.822391  0.381329
EA138
 1.0000000000000000
     4.857000    0.000000   -0.000000
    -2.392882    4.226650    0.000000
     0.000000   -2.729934    3.974814
 H   O  
   8   4
Direct
  0.953246  0.093874  0.301585
  0.784027  0.266922  0.238450
  0.288782 -0.046555  0.719985
  0.282143  0.267038  0.720840
  0.850959  0.760818  0.456068
  0.533038  0.448644  0.146736
  0.050896  0.786656  0.981165
  0.043286  0.472389  0.659199
  0.873366  0.114404  0.131365
  0.363914  0.104838  0.625935
  0.608671  0.606341  0.391494
  0.127832  0.619394  0.902738
EA32
 1.0000000000000000
     5.095000   -0.000000   -0.000000
     0.000000    5.095000   -0.000000
     0.000000    0.000000    3.144000
 H   O  
   8   4
Direct
  0.077683  0.248568  0.700799
 -0.062949  0.247923  0.263998
  0.232702  0.740037  0.215179
  0.094965  0.740987  0.654137
  0.594476 -0.257379 -0.119446
  0.733720 -0.253569  0.318420
  0.369628  0.402669  0.179467
  0.418984  0.260925 -0.249028
 -0.095035  0.248645  0.569922
  0.266565  0.735065  0.520453
  0.766560 -0.252313  0.012726
  0.416354  0.233421  0.058052
EA292
 1.0000000000000000
     4.452000    0.000000    0.000000
     0.013598    4.451979   -0.000000
    -0.012578   -0.012539    4.117962
 H   O  
   8   4
Direct
  1.048516 -0.132709  0.942994
  0.900410  0.165411  1.050557
  1.060470  0.372378  0.416619
  0.909426  0.660402  0.552820
  0.559355  0.366975  0.914134
  0.406620  0.654111  1.049173
  0.560184 -0.132249  0.413683
  0.406320  0.154082  0.549340
  0.891233  0.010309  0.884226
  0.890899  0.508402  0.383745
  0.387579  0.500144  0.882453
  0.389387  0.001939  0.380403
EA12
 1.0000000000000000
     5.095000   -0.000000   -0.000000
     0.000000    5.095000   -0.000000
     0.000000    0.000000    3.144000
 H   O  
   8   4
Direct
  0.034519  0.215552  0.732961
 -0.103961  0.228750  0.294436
  0.223588  0.695322  0.237537
  0.084605  0.709032  0.674689
  0.584231 -0.286357 -0.099035
  0.723414 -0.270783  0.338112
  0.341789  0.354488  0.200213
  0.378319  0.209487 -0.228487
 -0.136824  0.232188  0.600119
  0.255648  0.687727  0.543225
  0.755568 -0.267059  0.032316
  0.374618  0.182203  0.078622
EA500
 1.0000000000000000
     4.466000    0.000000    0.000000
     0.010211    4.465988    0.000000
     0.009784   -0.045872    4.091731
 H   O  
   8   4
Direct
 -0.007352  0.512532  0.779302
  0.005482  0.520169  0.407606
  0.636652  0.878020  0.742794
  0.345347  0.738475  0.605913
 -0.177061  0.747851  0.079581
 -0.031184  1.029893 -0.071317
  0.339454  0.554638  0.081665
  0.467206  0.263428 -0.072279
  0.007632  0.381552  0.589071
  0.475979  0.912370  0.587224
 -0.001372  0.875467  0.091794
  0.506379  0.414717  0.094994
EA33
 1.0000000000000000
     5.095000   -0.000000   -0.000000
     0.000000    5.095000   -0.000000
     0.000000    0.000000    3.144000
 H   O  
   8   4
Direct
 -0.015675  0.207907  0.776465
 -0.148628  0.227458  0.334006
  0.164555  0.680448  0.300972
  0.030167  0.697626  0.741781
  0.535656 -0.315076  0.249396
  0.756014 -0.112472  0.263511
  0.287922  0.342707  0.252689
  0.326764  0.201144 -0.178720
 -0.185647  0.222920  0.638376
  0.199548  0.671708  0.605734
  0.700361 -0.269618  0.112355
  0.322843  0.171725  0.127837
EA162
 1.0000000000000000
     4.421000   -0.000000   -0.000000
     0.000000    4.421000   -0.000000
     0.000000    0.000000    4.176000
 H   O  
   8   4
Direct
  0.331898  0.321943  0.099711
  0.187069  0.473831  0.395959
  0.855818  0.300629  0.590402
  0.847805  0.646430  0.587372
  0.380627 -0.156357  0.581904
  0.512441  0.137479  0.729145
  0.699118  0.005517  0.385067
  0.997477  0.139532  0.249980
  0.354156  0.491721  0.245954
  0.845262  0.474324  0.732341
  0.346121 -0.005563  0.747708
  0.860321 -0.032280  0.231341
EA98
 1.0000000000000000
     4.345000    0.000000    0.000000
    -0.113815    4.343509    0.000000
     0.153381   -0.372687    4.326269
 H   O  
   8   4
Direct
 -0.052236  0.207359  0.670273
  0.298339  0.226432  0.688006
  0.646666  0.200132  0.320157
  0.780904  0.356586  0.036530
  0.989389  0.868735 -0.012394
  0.974286  0.852317  0.337998
  0.453828  0.876826  0.522008
  0.595788  1.019234  0.825775
  0.119033  0.355210  0.682423
  0.604345  0.356820  0.180724
  1.120143  0.857527  0.164087
  0.625851  0.859894  0.657347
EA90
 1.0000000000000000
     4.172000   -0.000000   -0.000000
     0.000000    3.335000   -0.000000
     0.000000    0.000000    5.865000
 H   O  
   8   4
Direct
  0.324387  0.753936  0.542974
  0.156477  0.887605  0.764307
  0.298196  0.700681  0.044120
  0.149655  0.870082  0.264466
  0.800894  0.209139  0.295650
  0.651747  0.379164  0.515559
  0.811023  0.225907  0.794157
  0.652389  0.375130  1.015633
  0.151097  0.920925  0.600283
  0.125837  0.869978  0.100595
  0.641443  0.398340  0.351355
  0.635440  0.388906  0.851280
EA246
 1.0000000000000000
     5.642000   -0.000000   -0.000000
     0.000000    2.960000   -0.000000
     0.000000    0.000000    4.886000
 H   O  
   8   4
Direct
  0.782492  0.288539  0.444915
  0.771132  0.535635  0.165861
  0.183285  0.650806  0.320906
  0.268948  0.240546  0.485796
  1.119785  0.818804  0.821006
  0.958179  0.401787  0.818562
  0.619046  0.954368  0.822546
  0.459259  1.372823  0.825542
  0.675750  0.456763  0.324800
  0.182397  0.323289  0.321259
  0.954387  0.729174  0.818778
  0.454053  1.045879  0.824992
EA369
 1.0000000000000000
     4.580000    0.000000   -0.000000
     0.032774    4.579883   -0.000000
    -0.027164   -0.029008    3.890797
 H   O  
   8   4
Direct
  0.625931  0.477262  0.178189
  0.469991  0.755713  0.311307
  0.631981 -0.017988  0.679224
  0.471651  0.258236  0.811724
  0.804311  0.541094  0.740950
  0.972153  0.823282  0.818413
  1.125128  0.282086  0.182813
  0.976759  0.004438  0.320441
  0.449338  0.594078  0.150141
  0.460215  0.103850  0.640182
  0.963742  0.660771  0.656907
  0.951980  0.162050  0.156496
EA319
 1.0000000000000000
     4.442000    0.000000   -0.000000
     0.012327    4.441983   -0.000000
    -0.006208   -0.021567    4.135939
 H   O  
   8   4
Direct
  0.662556  0.554312  0.908484
  0.795923  0.254135  1.035314
  0.433990  0.897523  1.056054
  0.430138  0.903964  0.687709
  0.664392  0.735054  0.389608
  0.950006  0.885917  0.529176
  0.460272  0.394155  0.556373
  0.449141  0.389885  0.188207
  0.817129  0.403283  0.865626
  0.297992  0.880129  0.872814
  0.789954  0.913662  0.370786
  0.319160  0.396428  0.376869
EA862
 1.0000000000000000
     5.066000   -0.000000   -0.000000
     0.000000    4.854000   -0.000000
     0.000000    0.000000    3.319000
 H   O  
   8   4
Direct
  0.325363  0.311274  0.463416
  0.178980  0.154615  0.794267
  0.669660  0.232998  0.840421
  0.694667  0.123848  1.275417
  0.754406  0.734012  0.340899
  0.730764  0.621645  0.774263
  0.420146  0.790797 -0.032930
  0.236347  0.647659  0.272621
  0.162172  0.312462  0.617127
  0.659504  0.290148  1.122163
  0.762988  0.789516  0.623491
  0.257236  0.815844  0.117939
EA188
 1.0000000000000000
     5.642000   -0.000000   -0.000000
     0.000000    2.960000   -0.000000
     0.000000    0.000000    4.886000
 H   O  
   8   4
Direct
  0.834519  0.125474  0.455176
  0.829279  0.380804  0.175737
  0.240240  0.707534  0.328546
  0.307317  0.284966  0.494246
  1.129891  0.832527  0.832479
  0.973113  0.410535  0.820307
  0.630887  0.945531  0.833643
  0.470582  1.364098  0.841018
  0.734678  0.313684  0.337913
  0.235520  0.380652  0.322992
  0.965980  0.737126  0.819828
  0.466087  1.036989  0.839314
EA220
 1.0000000000000000
     4.455000   -0.000000    0.000000
    -0.000311    4.455000   -0.000000
     0.005240   -0.009260    4.112986
 H   O  
   8   4
Direct
  0.475442  0.585525  0.575985
  0.623871  0.879214  0.454522
  1.001561  0.554519  0.114912
  1.004262  0.898543  0.114257
  0.509110  0.054056  0.094482
  0.515866  0.398364  0.108177
  0.278671  0.067371  0.592825
 -0.006989  0.217751  0.453723
  0.627673  0.734035  0.630405
  1.138480  0.725537  0.112330
  0.646647  0.222885  0.120836
  0.150456  0.243506  0.615042
EA305
 1.0000000000000000
     5.642000   -0.000000   -0.000000
     0.000000    2.960000   -0.000000
     0.000000    0.000000    4.886000
 H   O  
   8   4
Direct
  0.657572  0.507083  0.346776
  0.718273  0.067983  0.190310
  0.359877  0.506324  0.854809
  0.297875  0.944398  1.010844
  0.157180  0.005395  0.355120
  0.219328  0.443595  0.511005
  0.859781  0.997550  0.847418
  0.797492  0.559773  0.691489
  0.654558  0.180639  0.362671
  0.362324  0.832566  0.838775
  0.154683  0.331630  0.339033
  0.862125  0.671348  0.863470
EA72
 1.0000000000000000
     5.146000    0.000000   -0.000000
    -0.091247    5.145191   -0.000000
     0.000000   -0.054675    3.082515
 H   O  
   8   4
Direct
  0.346542  0.675740  0.768955
  0.163704  0.676070  0.372216
  0.681684  0.682897 -0.160673
  0.980234  0.677769 -0.136996
  0.146839  0.196004  0.267430
  0.209962  0.349071 -0.149503
  0.645395  0.185327  0.798540
  0.694441  0.347308  0.387724
  0.345640  0.673592  0.454693
  0.824987  0.676841  0.044050
  0.143775  0.181801 -0.047847
  0.644892  0.173882  0.482236
EA329
 1.0000000000000000
     4.440000    0.000000   -0.000000
     0.003487    4.439999    0.000000
    -0.000650   -0.008166    4.140992
 H   O  
   8   4
Direct
  0.251765  0.252447  1.031764
  0.093996  0.101054  0.741544
  0.397519  0.572786  0.215546
  0.110693  0.432559  0.368274
  0.910785  0.070258  0.221020
  0.608556 -0.056636  0.350489
  0.771636  0.709526  1.071163
  0.747452  0.727664  0.704233
  0.261464  0.077293  0.890533
  0.249104  0.602255  0.385314
  0.765085  0.091725  0.395012
  0.742765  0.583774  0.880906
EA272
 1.0000000000000000
     5.406000   -0.000000   -0.000000
     0.000000    5.406000   -0.000000
     0.000000    0.000000    2.792000
 H   O  
   8   4
Direct
  0.083801  0.605303  0.230154
 -0.094879  0.385354  0.226824
 -0.094149 -0.114317 -0.001181
  0.085480  0.104876 -0.005159
  0.406078  0.857873  0.501170
  0.585997  0.638943  0.497735
  0.585108  0.138951  0.733383
  0.405044  0.357823  0.729250
  0.065723  0.437526  0.350020
  0.066532 -0.062762 -0.125067
  0.566956  0.806589  0.377875
  0.565819  0.306569  0.853181
EA756
 1.0000000000000000
     4.423000    0.000000    0.000000
    -0.000309    4.423000   -0.000000
     0.021694   -0.040692    4.170745
 H   O  
   8   4
Direct
  0.223515  0.409399  0.259715
 -0.058527  0.244483  0.395362
  0.731720  0.401512  0.767083
  0.443266  0.243512  0.897004
  0.426348  0.729423  0.399547
  0.564631  0.567636  0.102164
 -0.073618  0.729255  0.899463
  0.064829  0.567394  0.602205
  0.095928  0.232081  0.228978
  0.597618  0.230073  0.730563
  0.590476  0.741394  0.244142
  0.091654  0.740148  0.745316
EA117
 1.0000000000000000
     4.869000   -0.000000   -0.000000
     0.000000    4.869000   -0.000000
     0.000000    0.000000    3.443000
 H   O  
   8   4
Direct
  0.096128  0.149814  0.361165
 -0.020507  0.429851  0.503362
  0.781136  0.271093  0.178683
  0.645423  0.104890 -0.149404
 -0.320724  0.921837  0.358433
 -0.138845  0.782471  0.666768
  0.051272 -0.197844  0.188337
  0.313063 -0.044335  0.049074
  0.129091  0.300258  0.541867
  0.615388  0.260887  0.022112
 -0.303049  0.755212  0.511544
  0.201565 -0.206926  0.002967
EA271
 1.0000000000000000
     4.451000   -0.000000   -0.000000
    -0.000388    4.451000    0.000000
     0.007117   -0.012508    4.118975
 H   O  
   8   4
Direct
  0.855579  0.833123  0.314287
  0.721484  1.132654  0.441719
  0.852384  0.330861  0.820296
  0.694336  0.617771  0.948285
  0.509001 -0.026492  0.790946
  0.500920 -0.039237  1.160474
  0.351135  0.321324  0.303889
  0.205459  0.609230  0.447139
  0.873601  0.981136  0.487021
  0.867141  0.487962  0.984252
  0.369272 -0.032736  0.972314
  0.373734  0.471075  0.474797
EA451
 1.0000000000000000
     4.516000   -0.000000   -0.000000
     0.025931    4.515926    0.000000
    -0.018794   -0.030913    4.002837
 H   O  
   8   4
Direct
  0.644702  0.425575  0.424542
  0.803239  0.141567  0.298878
  0.649548  0.927348  0.927737
  0.803289  0.641558  0.799477
  0.467804  0.296872  0.802202
  0.180247  0.443151  0.935436
  0.468931  0.797815  0.302906
  0.180678  0.943878  0.434760
  0.816369  0.298544  0.465446
  0.819557  0.797722  0.966696
  0.307734  0.269124  0.960442
  0.308125  0.769842  0.460220
EA401
 1.0000000000000000
     4.489000   -0.000000   -0.000000
     0.014494    4.488977   -0.000000
    -0.001202   -0.035772    4.050842
 H   O  
   8   4
Direct
  0.409010  0.914205  0.124039
  0.124131  1.063721 -0.013889
  0.911690  0.910008  0.621120
  0.626448  1.062356  0.487272
  0.411984  0.410645  0.619962
  0.126383  0.562915  0.486819
  0.912110  0.410091  0.119706
  0.626584  0.562786 -0.012958
  0.258181  0.894569 -0.047070
  0.758765  0.892074  0.452176
  0.259125  0.393114  0.450892
  0.758909  0.392620 -0.048998
EA163
 1.0000000000000000
     4.861000   -0.000000   -0.000000
     0.000000    4.861000   -0.000000
     0.000000    0.000000    3.454000
 H   O  
   8   4
Direct
  0.829403  0.474641  0.730454
  0.572730  0.321382  0.876606
  0.329451  0.477358  0.229450
  0.074303  0.320755  0.374082
  0.243839  0.826231  0.740014
  0.504711  0.996582  0.717152
  0.741623  0.828611  0.239130
  1.004671  0.995762  0.216619
  0.674138  0.491793  0.905026
  0.174189  0.491842  0.404544
  0.334182  0.981780  0.861858
  0.834483  0.982161  0.362316
EA167
 1.0000000000000000
     4.352000    0.000000   -0.000000
    -0.401997    4.333394    0.000000
     0.000000   -0.403166    4.327259
 H   O  
   8   4
Direct
  0.926796  0.571863  0.833915
  0.784647  0.258455  0.679647
  0.392647  0.797241  0.847924
  0.270264  1.067806  0.689601
  0.290558  0.419018  0.006885
  0.561995  0.269457  0.145916
  1.074741  1.095759  0.165898
  0.774231  0.946768  0.004818
  0.961684  0.410209  0.671455
  0.431162  0.925764  0.676915
  0.433941  0.441827  0.180525
  0.912570  0.927792  0.176034
EA170
 1.0000000000000000
     4.531000   -0.000000   -0.000000
     0.000000    4.531000   -0.000000
     0.000000    0.000000    3.976000
 H   O  
   8   4
Direct
  0.128883  0.959387  0.854214
  0.148735  0.621310  0.851016
  0.646651  0.468575  0.836554
  0.623162  0.130312  0.838742
  1.002828  0.442006  0.486562
  1.160837  0.291760  0.189495
  0.668698  0.939982  0.328276
  0.521634  0.652747  0.200580
  0.006648  0.782390  0.835378
  0.503236  0.308955  0.857010
  0.991981  0.271616  0.338382
  0.499656  0.810989  0.363740
EA146
 1.0000000000000000
     4.817000    0.000000    0.000000
    -2.319355    4.221858   -0.000000
     0.000000   -2.638616    4.013292
 H   O  
   8   4
Direct
  0.495551  0.753540  0.632256
  0.730308  0.729832  0.818507
  0.005391  0.763170  0.134617
  0.233389  0.731867  0.320392
  0.780111 -0.031704  0.426188
  0.776870  0.284900  0.425407
  0.282979 -0.028404  0.928617
  0.279943  0.287921  0.927183
  0.603939  0.619001  0.594293
  0.108556  0.623315  0.096388
  0.866251  0.128135  0.339030
  0.368495  0.130257  0.840440
EA165
 1.0000000000000000
     4.351000   -0.000000    0.000000
    -0.331533    4.338351    0.000000
     0.075901   -0.456403    4.324319
 H   O  
   8   4
Direct
  0.185805  0.476882  0.391583
  0.335169  0.183938  0.246541
  0.689607  0.463971  0.888397
  0.841340  0.165658  0.766047
  0.337671  0.965165  0.742787
  0.203725  0.676117  0.892461
  0.683686  0.969773  0.384702
  0.832302  0.674471  0.250054
  0.181895  0.328001  0.208808
  0.685670  0.302307  0.718020
  0.159218  0.816503  0.741339
  0.670822  0.809779  0.213339
EA434
 1.0000000000000000
     4.530000   -0.000000    0.000000
     0.024668    4.529933   -0.000000
    -0.018121   -0.028506    3.977857
 H   O  
   8   4
Direct
  0.806359  0.571387  0.537279
  0.806772  0.572625  0.154836
  0.643972  0.074669  0.847931
  0.981830  0.066215  0.826527
  0.164242  0.945622  0.194055
  0.451967  1.093952  0.320842
  0.157563  0.426044  0.679598
  0.439116  0.578449  0.815095
  0.804216  0.438141  0.344347
  0.810901 -0.061881  0.848961
  0.326226  0.922168  0.353408
  0.315842  0.404071  0.843840
EA632
 1.0000000000000000
     3.859000   -0.000000   -0.000000
     0.000000    3.859000   -0.000000
     0.000000    0.000000    5.481000
 H   O  
   8   4
Direct
  1.014775  0.631700  0.761090
  1.019415  0.297919  0.913445
  0.517955  0.136710  0.519798
  0.517375 -0.204037  0.664017
  0.517923  0.137296  0.019777
  0.518026 -0.203380  0.164055
  0.018237  0.637327  0.269864
  0.017992  0.296077  0.413462
  0.862107  0.466250  0.841149
  0.362418 -0.034222  0.590981
  0.362722 -0.033261  0.091695
 -0.137139  0.466408  0.341179
EA128
 1.0000000000000000
     4.861000    0.000000   -0.000000
    -2.405697    4.223972    0.000000
     0.000000   -2.754268    3.975035
 H   O  
   8   4
Direct
  0.212257  0.487170  0.680289
  0.244776  0.192908  0.688556
  0.681510  0.330724  0.263970
  0.893018  0.210790  0.058950
 -0.169205  0.715295  0.805242
  0.153344  1.029719  1.109597
  0.336732  0.720318  0.309114
  0.651247  1.136388  0.501674
  0.330070  0.363489  0.614469
  0.824325  0.386064  0.130985
  0.072489  0.861544  0.865991
  0.579620  0.868951  0.379949
EA408
 1.0000000000000000
     4.510000    0.000000   -0.000000
    -0.394641    4.492701   -0.000000
     0.000000    0.000000    4.027000
 H   O  
   8   4
Direct
  0.265923  0.686516  0.400949
  0.412056  0.411695  0.271052
  0.418158  0.215021  0.743776
  0.426629 -0.123574  0.751606
 -0.076777  0.712385  0.744028
 -0.210046  0.411981  0.601486
  0.923010  0.225561  0.240027
  0.887154 -0.114843  0.227705
  0.257525  0.543891  0.220234
  0.288888  0.030584  0.737611
 -0.251019  0.568985  0.756151
  0.773910  0.058230  0.258510
EA342
 1.0000000000000000
     5.184000   -0.000000   -0.000000
     0.000000    5.184000   -0.000000
     0.000000    0.000000    3.037000
 H   O  
   8   4
Direct
  0.298906  0.351189  0.933262
  0.242640  0.198043  0.505848
  0.761058  0.857790  0.944763
  0.741855  0.708779  0.504408
  0.265490  0.859001  0.437209
  0.243158  0.697143  0.012814
  0.774432  0.361004  0.425032
  0.741067  0.203587 -0.002668
  0.252515  0.180006  0.824751
  0.748900  0.685248  0.822050
  0.252321  0.682738  0.331430
  0.753680  0.186101  0.315560
EA715
 1.0000000000000000
     4.191000    0.000000    0.000000
    -0.000145    4.159000   -0.000000
     0.019113   -0.036184    4.679821
 H   O  
   8   4
Direct
  0.487886 -0.118587  0.211835
  0.636505  0.171518  0.054417
  0.656724  0.525216  0.665453
  0.292961  0.550722  0.660568
  0.986893 -0.115973  0.712048
  1.134184  0.173381  0.552970
  0.158819  0.526347  0.162606
 -0.205179  0.544534  0.165696
  0.460510  0.019414  0.046423
  0.476970  0.529354  0.533502
  0.958748  0.020610  0.545934
 -0.024210  0.531923  0.034350
EA260
 1.0000000000000000
     4.958000   -0.000000   -0.000000
     0.000000    3.727000   -0.000000
     0.000000    0.000000    4.417000
 H   O  
   8   4
Direct
  0.548998  0.927389  0.948544
  0.395986  0.617911  1.098626
  0.503490  0.419168  0.441357
  0.330889  0.121357  0.585235
  1.032640  0.445124  0.917804
  0.891898  0.129451  1.074498
  0.999495  0.938357  0.413132
  0.827851  0.640320  0.560296
  0.562324  0.756653  1.111170
  0.494199  0.262433  0.614699
  1.054058  0.277378  1.082397
  0.992496  0.780254  0.585873
EA634
 1.0000000000000000
     4.845000   -0.000000   -0.000000
     0.000000    4.845000   -0.000000
     0.000000    0.000000    3.477000
 H   O  
   8   4
Direct
  0.685636  0.679386  0.200815
  0.594703  0.694350 -0.222204
  0.083656  0.888221  0.436788
  0.241952  0.635995  0.277734
  0.602810  0.191278  0.624544
  0.667961  0.190929  0.194031
  0.243453  0.134931  0.110676
  0.085348  0.386757 -0.049727
  0.752350  0.650015 -0.061043
  0.257042  0.788348  0.458513
  0.750507  0.151720  0.443938
  0.259627  0.288172 -0.068429
EA108
 1.0000000000000000
     4.986000   -0.000000    0.000000
     0.014881    4.985978    0.000000
     0.011463   -0.009835    3.283965
 H   O  
   8   4
Direct
  0.223840  0.748240  0.406040
  0.071615  0.936628  0.117517
  0.300993  0.396886  0.222195
  0.414816  0.401066  0.659090
  0.800589  0.396289  0.722636
  0.914664  0.392712  1.159334
  0.756810  0.912490  0.745560
  0.567825  1.064980  1.040133
  0.101462  0.900752  0.406087
  0.467994  0.405134  0.372679
  0.967861  0.392941  0.872854
  0.590477  0.894827  0.898078
EA110
 1.0000000000000000
     4.797000    0.000000   -0.000000
    -2.277960    4.221624    0.000000
     0.009796   -2.599956    4.031296
 H   O  
   8   4
Direct
 -0.052184  0.585704  0.470708
  0.252060  0.689584  0.698985
  0.426617  0.575495 -0.056646
  0.703878  0.658751  0.184352
  0.366987  0.101766  0.071082
  0.357420  0.404635  0.386490
  0.841446  0.080913  0.553171
  0.828791  0.380463  0.867457
  0.187139  0.754479  0.557212
  0.665146  0.737057  0.042610
  0.446840  0.245670  0.311796
  0.925696  0.228939  0.793352
EA829
 1.0000000000000000
     3.746000   -0.000000   -0.000000
     0.000000    3.746000   -0.000000
     0.000000    0.000000    5.815000
 H   O  
   8   4
Direct
 -0.154480 -0.110443  0.210057
  0.134013  0.184967  0.227209
  0.492254  0.543198  0.216259
  0.665782  0.392401  0.437385
 -0.162147 -0.102552  0.548839
  0.001858  0.044076  0.773062
  0.478441  0.552228  0.715570
  0.695183  0.425435  0.926273
 -0.005380  0.045786  0.117326
  0.484819  0.557611  0.381936
  0.014483  0.065089  0.607102
  0.481762  0.558684  0.881305
EA792
 1.0000000000000000
     5.632000   -0.000000   -0.000000
     0.000000    4.982000   -0.000000
     0.000000    0.000000    2.909000
 H   O  
   8   4
Direct
  0.877426  0.597845  0.410111
  0.791555  0.886739  0.299428
  0.227486  0.428693  0.679016
  0.227561  0.119478  0.681023
  0.290890  0.928831  0.181301
  0.290857  0.619554  0.180372
  0.731931  0.118687  0.824276
  0.727832  0.427892  0.835707
  0.858613  0.776144  0.543494
  0.169726  0.273653  0.508925
  0.349904  0.774362  0.011628
  0.667202  0.269993  0.993189
EA114
 1.0000000000000000
     4.765000    0.000000   -0.000000
    -0.464569    4.742299    0.000000
     0.000000   -0.355605    3.612540
 H   O  
   8   4
Direct
  0.789299  0.730098  0.743723
  0.532769  0.898787  0.768345
  0.283100  0.744249  0.220815
 -0.037104  0.750986  0.239212
  1.162381  0.241873  0.750544
  1.046549  0.106821  1.094321
  0.653928  0.244090  0.238249
  0.395760  0.398012  0.366310
  0.621483  0.755956  0.890086
  0.126938  0.737637  0.392674
  1.002651  0.237729  0.916341
  0.497523  0.236522  0.409594
EA214
 1.0000000000000000
     5.642000   -0.000000   -0.000000
     0.000000    2.960000   -0.000000
     0.000000    0.000000    4.886000
 H   O  
   8   4
Direct
  0.617839  0.135027  0.179561
  0.829973  0.450586  0.165943
  0.225063  0.637163  0.316901
  0.298601  0.206206  0.468952
  1.147463  0.817712  0.814440
  0.987955  0.399419  0.814007
  0.648089  0.954546  0.803473
  0.475961  1.355287  0.802982
  0.732770  0.286143  0.296904
  0.222711  0.310747  0.302660
  0.982733  0.726409  0.816692
  0.480483  1.027936  0.800399
EA453
 1.0000000000000000
     4.554000   -0.000000    0.000000
     0.032190    4.553886    0.000000
    -0.025342   -0.032306    3.934786
 H   O  
   8   4
Direct
  0.508466 -0.067245  0.896006
  0.357787  0.215092  1.033979
  0.508475  0.430985  0.406459
  0.355160  0.714878  0.535201
  1.006974  0.439230  0.912148
  0.851832  0.722548  1.039039
  1.006889 -0.060979  0.412601
  0.851716  0.222451  0.538992
  0.336993  0.059748  0.865199
  0.338970  0.558789  0.366720
  0.837986  0.567174  0.869333
  0.837515  0.066519  0.370000
EA473
 1.0000000000000000
     4.120000   -0.000000   -0.000000
     0.000000    4.120000   -0.000000
     0.000000    0.000000    4.807000
 H   O  
   8   4
Direct
  0.462239 -0.164921 -0.062729
  0.606735  0.125878  0.096216
 -0.035671  0.332924 -0.055564
  0.107001  0.626421  0.101105
 -0.035788 -0.169257  0.444814
  0.106010  0.125033  0.600907
  0.464465  0.330515  0.443366
  0.607395  0.625649  0.597385
  0.634376 -0.006356 -0.070646
  0.134936  0.493064 -0.065032
  0.134673 -0.008968  0.435206
  0.634665  0.490915  0.431978
EA107
 1.0000000000000000
     4.356000    0.000000    0.000000
    -0.343435    4.342440   -0.000000
     0.137509   -0.568847    4.316508
 H   O  
   8   4
Direct
  0.414808  0.360952  0.845721
  0.537711  0.525041  1.157337
  0.908940  0.360053  0.350057
  1.037686  0.525381  0.658594
  0.553237  1.034165  0.333847
  0.669798  0.902774  0.619154
  1.053388  1.034997 -0.165608
  1.170354  0.903506  0.119471
  0.564769  0.346473  1.003887
  1.063263  0.347087  0.504426
  0.497170  0.886483  0.479128
  0.997607  0.887196 -0.020372
EA544
 1.0000000000000000
     5.260000   -0.000000   -0.000000
     0.000000    3.037000   -0.000000
    -0.877016    0.000000    5.109276
 H   O  
   8   4
Direct
  0.923189  0.587064  0.884219
  0.691018  0.323918  0.925208
  0.233713  0.264217  0.961788
  0.243222 -0.186215  0.822189
  0.359180  0.716033  0.286392
  0.214243  0.424003  0.452212
  0.848850 -0.153395  0.276698
  0.729828  0.148845  0.458893
  0.750144  0.518450  0.799112
  0.252899  0.130801  0.795993
  0.193987  0.574912  0.285385
  0.694399  0.015738  0.286362
EA105
 1.0000000000000000
     5.055000   -0.000000   -0.000000
    -0.072961    5.054473    0.000000
     0.000000   -0.046105    3.193667
 H   O  
   8   4
Direct
  0.617142  0.147850  0.360482
  0.744337  0.148103 -0.080806
  0.113263  0.148720  0.852672
  0.243063  0.148278  0.414033
  0.438384  0.651194  0.752552
  0.564966  0.649841  0.311774
  0.938210  0.650719  1.251917
  1.064888  0.649886  0.811259
  0.574781  0.148003  0.061888
  0.072649  0.148523  0.553839
  0.395535  0.649676  0.454764
  0.895429  0.649794  0.954117
EA211
 1.0000000000000000
     3.838000   -0.000000   -0.000000
     0.000000    3.838000   -0.000000
     0.000000    0.000000    5.540000
 H   O  
   8   4
Direct
  0.818392  0.480435  0.689409
  1.160742  0.488715  0.831934
 -0.011448  0.330484  0.113090
  0.147017  0.485389  0.343876
  0.313062 -0.023549  0.451995
  0.660596 -0.021210  0.588210
  0.321688 -0.009355 -0.063016
  0.642490 -0.014881  0.103005
  0.991497  0.328707  0.762532
 -0.023069  0.316436  0.286611
  0.488582 -0.178398  0.518949
  0.481792 -0.167507  0.017691
EA6
 1.0000000000000000
     5.784000    0.000000    0.000000
     0.695492    2.962455   -0.000000
    -2.254592    1.091820    4.763473
 H   O  
   8   4
Direct
 -0.022462  0.389445  0.336172
  0.155528  0.290998  0.192594
  0.652005  0.443074  0.235747
  0.488032  0.142774  0.276406
  0.324026  0.853209  0.740240
  0.516330  0.780785  0.610942
  1.149039  0.435392  0.716227
  1.030769  0.797958  0.847397
 -0.007299  0.247114  0.187351
  0.499659  0.457325  0.271578
  0.482098  0.926476  0.750282
  0.987029  0.675734  0.677447
EA633
 1.0000000000000000
     4.869000    0.000000   -0.000000
     2.434500    4.216678    0.000000
    -2.434500   -1.405559    3.975522
 H   O  
   8   4
Direct
  0.439098  0.213735  0.746937
  0.100905  0.446373  0.799665
  0.830775  0.739247  0.111622
  0.623387  0.921148  0.343468
  0.712304  0.370706  0.541872
  0.401426  0.691550  0.539886
  0.223705 -0.132937  0.042241
 -0.082417  0.191979  0.052392
  0.225057  0.210086  0.711448
  0.737010  0.696616  0.215750
  0.468152  0.447793  0.457480
 -0.020647 -0.050928 -0.043021
EA68
 1.0000000000000000
     4.137000   -0.000000   -0.000000
    -1.704584    4.465735    0.000000
     0.000000   -1.824540    4.418083
 H   O  
   8   4
Direct
  0.580316  0.534981  0.478217
  0.676774  0.409515  0.709375
  0.014552  0.441118  0.078300
  0.381317  0.437987  0.075716
  0.866397  0.057931  0.230439
  0.931873 -0.074030  0.466871
  0.358762  0.030275  0.729083
  0.427861 -0.086411  0.977006
  0.769016  0.576568  0.628035
  0.257595  0.579782  0.161324
  1.041399  0.093679  0.389532
  0.537444  0.071566  0.888268
EA52
 1.0000000000000000
     4.137000   -0.000000   -0.000000
    -1.704584    4.465735    0.000000
     0.000000   -1.824540    4.418083
 H   O  
   8   4
Direct
  0.625256  0.585144  0.507240
  0.712588  0.447517  0.731524
  0.049528  0.477344  0.098772
  0.415638  0.472611  0.096404
  0.897771  0.088897  0.246189
  0.965996 -0.039435  0.484858
  0.391614  0.063285  0.745874
  0.460191 -0.052514  0.994719
  0.811046  0.617652  0.654728
  0.292816  0.615049  0.182614
  1.073812  0.127007  0.405659
  0.569728  0.105698  0.906097
EA104
 1.0000000000000000
     4.244000   -0.000000   -0.000000
     0.000000    3.514000   -0.000000
     0.000000    0.000000    5.472000
 H   O  
   8   4
Direct
  0.400877  0.920046  0.653029
  0.049261  0.944857  0.720320
  0.390806  0.943125  0.206050
  0.031085  0.937096  0.217993
  0.870013  0.455986  0.831823
  0.550745  0.456161  0.966789
  0.869221  0.454131  0.337818
  0.547556  0.442232  0.469067
  0.207405  0.770842  0.655740
  0.209552  0.792477  0.156056
  0.709882  0.287086  0.897820
  0.709610  0.279030  0.398767
EA665
 1.0000000000000000
     5.607000    0.000000   -0.000000
    -2.803500    4.855804   -0.000000
     0.000000    0.000000    2.997000
 H   O  
   8   4
Direct
  0.485476 -0.132583  0.629914
  0.479524  0.054251  0.995391
 -0.022686  0.373466  0.735283
  0.131933  0.687764  0.810247
  0.495735  0.390321  0.939329
  0.633525  0.680300  1.152533
 -0.011542 -0.130478  0.240574
  0.127487  0.184379  0.286117
  0.483930  0.039085  0.672987
 -0.035662  0.520112  0.889839
  0.456866  0.528837  1.057846
 -0.023767  0.014242  0.401952
EA55
 1.0000000000000000
     6.885000   -0.000000   -0.000000
     0.000000    3.443000   -0.000000
     0.000000    0.000000    3.443000
 H   O  
   8   4
Direct
  0.328925  0.647189  0.543885
  0.112646  0.570842  0.469238
  0.864493  0.389654  0.527740
  0.643925  0.368792  0.530533
 -0.077297  0.173046  0.057594
 -0.026348 -0.256400 -0.005997
  0.412452  0.142740  0.057788
  0.575540 -0.162079  0.062324
  0.241957  0.479856  0.397950
  0.750943  0.504620  0.405829
  0.002110  0.003786 -0.102550
  0.495230 -0.009237 -0.112535
EA139
 1.0000000000000000
     4.868000    0.000000    0.000000
    -2.432307    4.216788   -0.000000
     0.000000   -2.807359    3.975729
 H   O  
   8   4
Direct
  0.214948  0.638544  0.470468
  0.508731  0.922000  0.804395
  0.639252  0.784291  0.043147
  0.920783  0.855953  0.267898
  0.394655  0.276437  0.313697
  0.710467  0.275760  0.314637
 -0.113927  0.257749  0.804210
  0.199017  0.252447  0.807868
  0.374615  0.914413  0.647990
  0.882608  0.942842  0.138648
  0.638508  0.447361  0.409350
  0.129991  0.427539  0.890255
EA245
 1.0000000000000000
     5.642000   -0.000000   -0.000000
     0.000000    2.960000   -0.000000
     0.000000    0.000000    4.886000
 H   O  
   8   4
Direct
  0.665629  0.188633  0.254254
  0.838956  0.594989  0.238421
  0.219381  0.629357  0.321895
  0.301301  0.209039  0.481224
  1.149463  0.762525  0.839606
  0.960734  0.390158  0.833322
  0.648290  0.950382  0.825373
  0.474474  1.346441  0.835242
  0.700146  0.482881  0.336062
  0.213688  0.301672  0.318831
  0.979711  0.715346  0.827387
  0.480523  1.018818  0.835354
EA130
 1.0000000000000000
     4.941000    0.000000    0.000000
    -0.129944    4.939291   -0.000000
     0.011037   -0.106598    3.344283
 H   O  
   8   4
Direct
  0.456659  0.584304  0.574177
  0.278347  0.737109  0.281339
  0.997040  0.564309  1.053099
  0.772929  0.770351  1.077740
  0.544356  0.178034  1.167846
  0.679221  0.398793  0.913188
  0.032956  0.186106  0.670080
  0.184378  0.392067  0.408601
  0.440500  0.756361  0.444036
  0.938673  0.729580  0.933367
  0.554449  0.243634  0.895718
  0.065366  0.231814  0.391725
EA147
 1.0000000000000000
     5.260000   -0.000000   -0.000000
     0.000000    3.037000   -0.000000
    -0.877016    0.000000    5.109276
 H   O  
   8   4
Direct
  0.939084  0.533444  0.844254
  0.760675  0.148243  0.743931
  0.595672 -0.119749  0.232060
  0.748582  0.316296  0.248334
  0.162268  0.046662  0.560014
  0.422801  0.147554  0.736125
  0.352038  0.468074  0.387530
  0.094082  0.356776  0.212421
  0.765998  0.468369  0.750737
  0.769950 -0.002004  0.250357
  0.261662 -0.009672  0.733570
  0.253680  0.518446  0.212606
EA59
 1.0000000000000000
     4.747000   -0.000000   -0.000000
     0.000000    5.342000   -0.000000
     0.000000    0.000000    3.218000
 H   O  
   8   4
Direct
  0.281248  0.395837 -0.236170
  0.276231  0.512076  0.204888
  0.758372  0.215920  0.269528
  0.774333  0.346769  0.699125
  0.274638  0.879583  0.271286
  0.275451  1.012171  0.700556
  0.783193  0.714107 -0.229099
  0.775770  0.847283  0.199271
  0.277269  0.352167  0.058621
  0.776404  0.182523  0.566600
  0.274982  0.847289  0.570147
  0.774826  0.682264  0.069496
EA67
 1.0000000000000000
     5.184000   -0.000000   -0.000000
     0.000000    5.184000   -0.000000
     0.000000    0.000000    3.037000
 H   O  
   8   4
Direct
  0.231328  0.377086 -0.129823
  0.237245  0.086414 -0.018966
  0.878155  0.312729  0.145591
  0.731410  0.189920  0.530685
  0.272445  0.598251  0.522324
  0.117200  0.756823  0.185938
  0.616032  0.813004 -0.309645
  0.748756  0.990165  0.025548
  0.204669  0.208008 -0.256123
  0.727584  0.337704  0.333084
  0.291054  0.730905  0.298258
  0.773995  0.832161 -0.139992
EA338
 1.0000000000000000
     3.443000   -0.000000   -0.000000
     0.000000    3.443000   -0.000000
     0.000000    0.000000    6.885000
 H   O  
   8   4
Direct
  0.213176 -0.104477  0.264006
  0.096484  0.318290  0.308364
  0.655494  0.435496  0.038747
  0.645212  0.876302  0.049496
  0.426048  0.009473  0.813722
  0.419214  0.324065  0.655527
 -0.212927 -0.076752  0.519501
 -0.084059 -0.495037  0.565341
  0.272724  0.164406  0.229667
  0.773325  0.665135 -0.018632
  0.250182  0.169059  0.737575
 -0.247048 -0.345803  0.477895
EA300
 1.0000000000000000
     4.793000   -0.000000   -0.000000
     0.000000    4.793000   -0.000000
     0.000000    0.000000    3.553000
 H   O  
   8   4
Direct
  0.188778  0.878593  0.802477
  0.327808  0.733586  1.147191
  0.691558  0.887387  0.308136
  0.855561  1.015524  0.641801
 -0.180430  0.374688  0.851087
  0.108974  0.499861  0.935198
  0.327076  0.371774  0.338022
  0.595193  0.526774  0.456483
  0.358515  0.876354  0.954873
  0.857798  0.862432  0.460506
 -0.017278  0.350385  1.008610
  0.480165  0.365894  0.516120
EA891
 1.0000000000000000
     4.782000   -0.000000   -0.000000
     0.000000    4.782000   -0.000000
     0.000000    0.000000    3.569000
 H   O  
   8   4
Direct
  0.325913  0.448007 -0.028499
  0.420132  0.142978  0.040537
  0.110737  0.776282  0.381941
  0.380548  0.616527  0.498043
  0.755293  0.247421  0.287733
  0.748323  0.200152  0.709571
  0.742269  0.700386 -0.154258
  0.605477  0.820981  0.202016
  0.259990  0.267498  0.062763
  0.266671  0.779692  0.557190
  0.742779  0.348353  0.523629
  0.760178  0.849736  0.029690
EA115
 1.0000000000000000
     4.719000    0.000000    0.000000
    -2.101405    4.225288    0.000000
     0.000000   -2.346948    4.093995
 H   O  
   8   4
Direct
  0.356394  0.557897  0.681034
  0.291291  0.862093  0.728998
  0.874461  0.686781  0.125008
  0.653359  0.807517  0.331710
  0.544294  0.304154  0.748408
  0.247785  0.008034  0.449360
  1.034711  0.300339  0.265987
  0.739658  0.008740 -0.033617
  0.229988  0.673024  0.786296
  0.730043  0.632772  0.263566
  0.484673  0.164054  0.510387
  0.977275  0.152991  0.028367
EA825
 1.0000000000000000
     3.443000   -0.000000   -0.000000
     0.000000    3.443000   -0.000000
     0.000000    0.000000    6.885000
 H   O  
   8   4
Direct
  0.536156  0.351492  0.325762
  0.465514  0.500647  0.117996
 -0.050016 -0.117655  0.570295
  0.000349  0.022427  0.362404
 -0.043939 -0.130183  0.068531
 -0.054702  0.178618 -0.090431
  0.443000  0.363773  0.817724
  0.446929  0.679685  0.656242
  0.621685  0.548441  0.234449
  0.118176  0.041638  0.490939
  0.122390  0.033894 -0.008311
  0.612976  0.538457  0.745495
EA78
 1.0000000000000000
     4.711000    0.000000    0.000000
     1.553406    4.447522   -0.000000
     0.451327   -1.642053    3.893901
 H   O  
   8   4
Direct
  0.104891  0.380043  0.660448
  0.273104  0.011878  0.482026
  0.591885  0.357080  0.169021
  0.799551 -0.004559 -0.006061
  0.869248  0.817934  0.424931
  0.872211  0.525312  0.119157
  0.345020  0.870794  0.911133
  0.539136  0.505202  0.740131
  0.174678  0.203492  0.434522
  0.688565  0.181201 -0.057048
  0.978862  0.672155  0.188000
  0.440488  0.692665  0.686170
EA195
 1.0000000000000000
     5.383000   -0.000000   -0.000000
     0.000000    3.222000   -0.000000
     0.000000    0.000000    4.705000
 H   O  
   8   4
Direct
  1.043775  1.038071  0.777079
  0.920198  0.604089  0.787941
  0.400836  1.048876  0.287859
  0.269728  0.619772  0.284507
  0.900214  0.549784  0.287080
  0.769735  0.120044  0.287768
  0.553490  0.535653  0.771348
  0.420859  0.109126  0.787668
  1.081529  0.742176  0.789196
  0.433196  0.750494  0.288708
  0.933037  0.251539  0.287713
  0.584902  0.238306  0.788891
EA503
 1.0000000000000000
     5.632000   -0.000000   -0.000000
     0.000000    4.982000   -0.000000
     0.000000    0.000000    2.909000
 H   O  
   8   4
Direct
  0.934908  0.651468  0.570529
  0.829612  0.782617  0.138360
  0.484065  0.757688  0.258533
  0.322029  0.745644 -0.163765
  0.706394  0.122831  1.090452
  0.505880  0.259652  0.814691
  0.194549  0.412150  0.805959
  0.029703  0.312224  0.414687
  0.824267  0.789806  0.469822
  0.318504  0.743602  0.167334
  0.667648  0.285896  0.922533
  0.152116  0.253091  0.631848
EA438
 1.0000000000000000
     5.642000   -0.000000   -0.000000
     0.000000    2.960000   -0.000000
     0.000000    0.000000    4.886000
 H   O  
   8   4
Direct
  0.539766  0.205874  0.349764
  0.763178  0.404035  0.221047
  0.971929  0.536263  0.959796
  0.789523  0.906517  1.015651
  0.309045  0.880655  0.566092
  0.514509  0.742164  0.756155
  0.267913  0.392605  0.084133
  0.084090  0.026416  0.135247
  0.708837  0.235686  0.379422
  0.856004  0.726162  0.868016
  0.344706  0.713586  0.731813
  0.200169  0.210972  0.229788
EA256
 1.0000000000000000
     4.947000    0.000000   -0.000000
    -0.024247    3.684920    0.000000
     0.001485   -0.065000    4.476528
 H   O  
   8   4
Direct
 -0.034353  0.559044  0.500311
  0.277730  0.546460  0.510509
  0.468552  0.685783  0.835977
  0.767327  0.635063  0.928202
 -0.029532  0.189260  0.874979
  0.250317  0.108659  1.014928
  0.614490 -0.109919  0.461937
  0.453768  0.206560  0.331606
  0.125178  0.542111  0.372271
  0.625297  0.531700  0.800953
  0.120241  0.018265  0.867935
  0.613023  0.058643  0.296963
EA857
 1.0000000000000000
     7.367000   -0.000000   -0.000000
     0.000000    3.683000   -0.000000
     0.000000    0.000000    3.008000
 H   O  
   8   4
Direct
  0.173507  0.522469  0.292909
  0.275352  0.494707  0.742381
  0.692657  0.370410  0.312306
  0.777294  0.504143  0.750907
 -0.066402  0.115896 -0.171288
  0.034036 -0.017307  0.247552
  0.439131 -0.135250 -0.173181
  0.533073  0.003096  0.256368
  0.293324  0.481927  0.422603
  0.789074  0.522200  0.428365
  0.037366 -0.029184 -0.075149
  0.536274  0.021557 -0.065965
EA339
 1.0000000000000000
     4.782000   -0.000000   -0.000000
     0.000000    4.782000   -0.000000
     0.000000    0.000000    3.569000
 H   O  
   8   4
Direct
  0.199551  0.393514 -0.105621
  0.391264  0.146766 -0.021712
  0.588372  0.738854 -0.084459
  0.838920  0.545737 -0.013332
  0.101944  0.746545  0.393982
  0.374493  0.897072  0.513756
  0.880699  0.211361  0.407230
  0.609681  0.369631  0.508294
  0.212871  0.228700  0.051898
  0.756887  0.723073  0.065347
  0.264875  0.727715  0.554414
  0.717111  0.201771  0.568270
EA374
 1.0000000000000000
     5.652000   -0.000000   -0.000000
     0.000000    4.147000   -0.000000
     0.000000    0.000000    3.482000
 H   O  
   8   4
Direct
  0.194633  0.839168 -0.118340
  0.345414  1.148730 -0.122896
  0.460338  0.328842  0.376199
  0.682782  0.484460  0.543026
  0.696508 -0.165955 -0.113056
  0.843148  0.146962 -0.115994
 -0.039664  0.325072  0.382867
  0.182717  0.484510  0.544709
  0.276767  0.989838  0.049657
  0.514180  0.496274  0.551442
  0.776800 -0.014195  0.055834
  0.014112  0.491528  0.559523
EA134
 1.0000000000000000
     4.377000    0.000000    0.000000
    -0.577145    4.338782    0.000000
     0.120770   -0.771625    4.298624
 H   O  
   8   4
Direct
  0.729654  0.357659  0.155953
  0.577107  0.200992  0.421725
  0.395306  0.352581  0.792029
  0.095631  0.219656  0.940274
  0.898416  0.847544  0.798145
  0.898430  0.501053  0.803904
  0.424773  0.665602  0.505294
  0.427336  0.666678  0.155877
  0.754639  0.200895  0.282476
  0.217413  0.195942  0.749835
  0.763497  0.663120  0.831152
  0.288293  0.663288  0.332404
EA793
 1.0000000000000000
     6.885000   -0.000000   -0.000000
     0.000000    3.443000   -0.000000
     0.000000    0.000000    3.443000
 H   O  
   8   4
Direct
  0.325778  0.677742  0.587731
  0.277796  0.253068  0.489161
  0.062836  0.188420 -0.204781
  0.027220  0.040886  0.210929
  0.812225  0.349040  0.289430
  0.815157  0.680607  0.588785
  0.553137 -0.151705  0.139172
  0.540751 -0.038379 -0.290005
  0.232085  0.519066  0.448730
 -0.017450  0.010322 -0.057575
  0.727822  0.505582  0.450979
  0.480107  0.010516 -0.038819
EA194
 1.0000000000000000
     4.703000    0.000000   -0.000000
    -0.001313    4.703000   -0.000000
     0.021001   -0.037035    3.690754
 H   O  
   8   4
Direct
  0.455735  0.045176  0.504127
  0.704477  0.227036  0.643456
 -0.035740 -0.052624  0.014357
  0.135025  0.202868  0.167009
  0.644649  0.700708  0.794990
  0.452257  0.610430  1.113738
 -0.044448  0.562635  0.354744
  0.121091  0.708872  0.661431
  0.662812  0.059331  0.496716
  0.150186  0.039913  0.003801
  0.634681  0.571309  0.997661
  0.121413  0.540996  0.507332
EA564
 1.0000000000000000
     4.421000    0.000000    0.000000
    -0.000463    4.421000    0.000000
     0.524441   -0.542092    4.175422
 H   O  
   8   4
Direct
  0.490962  0.357755  1.004379
  0.445549  0.380106  0.657187
  0.089061  0.915727  0.838343
 -0.196034  0.756224  0.986241
  0.358655  0.901804  0.319928
  0.325605  0.561444  0.348903
  0.833741  0.400241  0.317898
  0.843096  0.058075  0.345986
  0.448411  0.233814  0.809905
 -0.048724  0.747649  0.795827
  0.475787  0.722887  0.350915
  0.975396  0.232791  0.323842
EA51
 1.0000000000000000
     4.185000   -0.000000    0.000000
     0.000000    4.185000    0.000000
    -1.522872    1.522872    4.660437
 H   O  
   8   4
Direct
  0.341945  0.818728  0.830413
  0.658300  0.936408  0.753983
  0.543988  0.189982  0.275663
  0.900732  0.182158  0.256234
  0.042433  0.691034  0.277327
  0.398735  0.686326  0.255966
 -0.101422  0.481088  0.902252
  0.145955  0.414917  0.750781
  0.579513  0.839521  0.917517
  0.777574  0.123706  0.394046
  0.276070  0.619594  0.394103
  0.078854  0.320714  0.921242
EA690
 1.0000000000000000
     3.844000    0.000000   -0.000000
    -0.000066    3.754000    0.000000
     0.014509   -0.027339    5.654915
 H   O  
   8   4
Direct
  0.644227  1.017113  0.171885
  0.248538  1.014968  0.171342
  0.648096  1.015965  0.671349
  0.252194  1.017023  0.672060
  1.147608  0.515229  0.421214
  0.751694  0.517246  0.422269
  1.147038  0.515971  0.921716
  0.751137  0.516360  0.921892
  0.447508  0.879587  0.113576
  0.449760  0.880110  0.613638
  0.948801  0.379812  0.363723
  0.949126  0.379803  0.863730
EA73
 1.0000000000000000
     5.171000    0.000000   -0.000000
    -0.031136    5.170906    0.000000
     0.000000   -0.018384    3.052945
 H   O  
   8   4
Direct
  0.280040  0.283851  0.462401
  0.229390  0.062225  0.142159
  0.078900  0.767192  0.728867
 -0.013808  0.562366  0.402385
  0.577732  0.764330  0.235019
  0.483783  0.562998 -0.096581
  0.809681  0.266412  0.970870
  0.731656  0.059741  0.638389
  0.288561  0.240999  0.151146
  0.062026  0.734862  0.415420
  0.562934  0.733872 -0.079163
  0.796941  0.236219  0.656345
EA570
 1.0000000000000000
     4.822000   -0.000000    0.000000
     2.256729    4.261321   -0.000000
     0.308571   -2.717071    3.971649
 H   O  
   8   4
Direct
  0.101528  0.986684  0.911358
  0.409536  0.911979  0.697080
  0.827170  0.523850  0.670559
  1.158752  0.402163  0.445894
  0.572651  0.020426  0.416813
  0.906508 -0.094794  0.201421
  0.327118  0.518634  0.171249
  0.657341  0.401453 -0.052483
  0.166169  1.056998  0.771083
  0.916208  0.566097  0.517418
  0.663873  0.070237  0.272492
  0.414386  0.576824  0.032070
EA29
 1.0000000000000000
     4.869000   -0.000000   -0.000000
    -2.434500    4.216678   -0.000000
     0.000000   -2.811118    3.975522
 H   O  
   8   4
Direct
  0.630926  0.541483  0.170995
  0.853601  0.544921  0.393291
  0.381178  0.041462  0.421000
  0.602949  0.043600  0.642899
  0.134426  0.546256  0.677539
  0.354148  0.538130  0.891119
 -0.115055  0.046758 -0.073172
  0.105206  0.040728  0.141958
  0.742903  0.418960  0.158116
  0.492282 -0.082020  0.407809
  0.242265  0.417804  0.657875
 -0.006573 -0.080747 -0.091648
EA277
 1.0000000000000000
     4.869000   -0.000000    0.000000
     0.000000    4.869000   -0.000000
    -2.434500    2.434500    3.442903
 H   O  
   8   4
Direct
 -0.052911  0.056495  0.108311
  0.108013 -0.162188  0.051764
  0.426920  0.564512  0.098753
  0.615877  0.344868  0.067297
  0.157867  0.320959  0.586724
  0.375590  0.101120  0.582834
  0.649873  0.825325  0.581142
  0.874940  0.604490  0.585569
 -0.110250 -0.036650 -0.041437
  0.388848  0.463666 -0.040528
  0.141465  0.212018  0.460183
  0.639244  0.713625  0.458996
EA112
 1.0000000000000000
     4.755000   -0.000000   -0.000000
    -2.179772    4.225946    0.000000
     0.016017   -2.471829    4.061998
 H   O  
   8   4
Direct
  0.180312  0.538120  1.083071
 -0.162776  0.227181  1.037475
  0.719437  0.386357  0.475620
  0.403718  0.079106  0.472568
  0.300184  0.581432  0.557815
  0.083747  0.719230  0.491964
  0.896450  0.769520  1.007210
  0.683137  0.899604  1.215384
  0.018035  0.275023  0.934003
  0.485722  0.224217  0.368341
  0.219772  0.749381  0.668527
  0.777016  0.744755  1.169587
EA827
 1.0000000000000000
     4.891000   -0.000000   -0.000000
     0.000000    4.891000   -0.000000
     0.000000    0.000000    3.412000
 H   O  
   8   4
Direct
  0.356411  0.047927  0.189622
  0.617082 -0.121512  0.139387
 -0.142714  0.570657  0.192376
  0.091443  0.367096  0.153502
 -0.141682  0.067233  0.686928
  0.094322 -0.134619  0.652090
  0.356785  0.574891  0.691483
  0.592565  0.373246  0.652130
  0.527387  0.043985  0.045099
  0.026017  0.540528  0.049209
  0.027654  0.037267  0.544759
  0.526382  0.546620  0.549116
EA85
 1.0000000000000000
     4.805000   -0.000000   -0.000000
     0.000000    4.805000   -0.000000
     0.000000    0.000000    3.535000
 H   O  
   8   4
Direct
  0.342682  0.095682  0.576344
  0.241926 -0.097489  0.899919
 -0.238717  0.702867  0.734283
 -0.083119  0.512161  0.451941
  0.103838  0.306634  0.092124
  0.265767  0.557397 -0.065238
  0.753128  0.194670  0.244692
  0.719201 -0.121241  0.222960
  0.253950 -0.084060  0.623700
 -0.258542  0.533385  0.586668
  0.267455  0.420973  0.137369
  0.758524  0.040987  0.067163
EA24
 1.0000000000000000
     4.734000    0.000000    0.000000
     1.498829    4.490464    0.000000
     1.736400   -2.159693    3.838150
 H   O  
   8   4
Direct
  0.330356  0.587159  0.113080
  0.352258  0.250148  0.091934
  0.570776  0.094228  0.372526
  0.599799 -0.247167  0.343627
  0.821441  0.594657  0.622288
  0.850358  0.253205  0.593110
  0.071318  0.093837 -0.127036
  0.099876 -0.247575 -0.156432
  0.415436  0.420376  0.181683
  0.661600 -0.076220  0.435031
  0.913308  0.423434  0.683578
  0.162685 -0.077437 -0.065535
EA135
 1.0000000000000000
     4.863000    0.000000    0.000000
    -2.413248    4.221967   -0.000000
     0.000000   -2.769370    3.975502
 H   O  
   8   4
Direct
 -0.009879  0.190173  0.752096
  0.131572  0.105518  0.959622
  0.460649  0.165156  0.227118
  0.644370  0.129115  0.448412
  0.692944  0.655462 -0.028259
  0.901755  0.641751  0.191881
  0.200189  0.660254  0.476331
  0.403437  0.642044  0.697373
 -0.079172  0.026750  0.832895
  0.419425  0.024310  0.327656
  0.670248  0.524651  0.078664
  0.173359  0.528054  0.582949
EA175
 1.0000000000000000
     4.813000   -0.000000    0.000000
     0.000000    3.569000   -0.000000
    -0.544769    0.000000    4.751875
 H   O  
   8   4
Direct
  0.336929  0.349076  0.197409
  0.210690  0.631421  0.398070
  0.122088  0.139009  0.717244
  0.364985 -0.017635  0.565471
  0.614353  0.339174  0.708720
  0.860515  0.516540  0.567589
  0.848658  0.132985  0.246375
  0.675718 -0.124210  0.413516
  0.164840  0.477651  0.232024
  0.277668 -0.036360  0.739118
  0.777515  0.502605  0.744439
  0.672127  0.000448  0.232788
EA474
 1.0000000000000000
     5.977000   -0.000000   -0.000000
     0.000000    3.020000   -0.000000
     0.000000    0.000000    4.521000
 H   O  
   8   4
Direct
  0.474970  0.650938  0.095809
  0.300187  1.026627  0.065305
  0.678782 -0.017088  0.535357
  0.508812  0.364559  0.549228
  0.145056  0.556594  0.547046
  0.003500  0.984082  0.549794
  0.978953 -0.047232  0.075460
  0.874841  0.317917 -0.112442
  0.459551  0.963381  0.048737
  0.669824  0.304624  0.538132
  0.157660  0.876885  0.554572
  0.972979  0.273479  0.055984
EA893
 1.0000000000000000
     4.869000   -0.000000   -0.000000
    -2.434500    4.216678   -0.000000
    -2.434500   -1.405559    3.975522
 H   O  
   8   4
Direct
  0.532407  0.149333  0.637749
  0.414064  0.254516  0.835420
 -0.008663  0.376728  0.388958
 -0.070788  0.538211  0.601492
  0.489859  0.624300  0.139400
  0.430777  0.787622  0.353636
 -0.007155 -0.125886 -0.118585
 -0.077576  0.025589  0.094035
  0.581067  0.345920  0.758536
  0.081919  0.595202  0.511593
  0.581666  0.843412  0.261906
  0.078911  0.088920  0.007048
EA7
 1.0000000000000000
     4.813000   -0.000000    0.000000
     0.000000    3.569000   -0.000000
    -0.544769    0.000000    4.751875
 H   O  
   8   4
Direct
  0.167295  0.703469  0.270318
  0.310824  0.317309  0.280181
  0.244851 -0.281231  0.784937
  0.379489  0.077114  0.682128
  0.801141 -0.197888  0.295173
  0.672665  0.149583  0.140025
  0.875289  0.661610  0.787465
  0.709860  0.339076  0.632181
  0.128514  0.435669  0.272337
  0.218054 -0.009167  0.769787
  0.651783 -0.013806  0.298992
  0.715939  0.495609  0.798690
EA470
 1.0000000000000000
     3.443000   -0.000000   -0.000000
     0.000000    3.443000   -0.000000
     0.000000    0.000000    6.885000
 H   O  
   8   4
Direct
  0.127006  0.086079 -0.103857
 -0.069522 -0.109290  0.074761
 -0.090084  0.232209  0.617629
 -0.095154 -0.084027  0.459634
  0.315254  0.507771  0.316977
  0.741776  0.407926  0.359238
  0.473104  0.335999  0.739551
  0.433118  0.773491  0.714990
  0.085813  0.114281  0.035829
  0.079313  0.072124  0.538451
  0.580278  0.575826  0.279636
  0.577645  0.580618  0.787744
EA41
 1.0000000000000000
     4.671000    0.000000    0.000000
     1.565051    4.401006   -0.000000
     0.469646   -1.713924    3.970440
 H   O  
   8   4
Direct
  0.821050  0.077714  0.747689
  0.830856  0.399272  0.743819
  0.336673  0.066667  0.229939
  0.335356  0.394985  0.235538
  0.111952  0.551789 -0.040780
  0.113443  0.876355 -0.045105
  0.611582  0.552546  0.460750
  0.612436  0.877781  0.457744
  0.886737  0.252714  0.859127
  0.391078  0.247977  0.350397
  0.227321  0.692540  0.008087
  0.722903  0.696962  0.516767
EA151
 1.0000000000000000
     4.733000    0.000000   -0.000000
     1.577649    4.462321    0.000000
     1.577649   -2.231124    3.864505
 H   O  
   8   4
Direct
  0.434281  0.002498 -0.151279
  0.467693 -0.059424  0.136622
  0.506479  0.449369  0.285667
  0.508135  0.416207  0.595823
  0.012117  0.713967  1.012548
  0.015849  0.511843  1.205193
  0.999313  0.178406  0.526438
  0.985157  0.036808  0.774610
  0.605980 -0.112453 -0.098139
  0.662783  0.357349  0.364109
  0.150030  0.599433  1.095069
  1.132559  0.087819  0.624563
EA149
 1.0000000000000000
     3.683000   -0.000000   -0.000000
     0.000000    3.683000   -0.000000
     0.000000    0.000000    6.015000
 H   O  
   8   4
Direct
  0.507919  0.395510  0.359084
  0.528777  0.733570  0.209428
  0.460506  0.461569  0.871400
  0.635676  0.601302  0.653287
  0.120710 -0.183292 -0.119007
 -0.192756  0.095754 -0.127504
  0.137068 -0.179299  0.523234
  0.040673  0.202474  0.434196
  0.445794  0.481656  0.211152
  0.449729  0.439013  0.710382
 -0.032141 -0.030843 -0.025292
 -0.066199 -0.031494  0.472495
EA136
 1.0000000000000000
     4.373000    0.000000    0.000000
    -0.565115    4.336332    0.000000
     0.122330   -0.763028    4.304179
 H   O  
   8   4
Direct
  0.895107  0.804218  0.385795
  0.763953  0.511556  0.519784
  1.057952  0.319227  0.006221
  0.709665  0.327878  0.022738
  0.249829  0.682338  0.887377
  0.597798  0.670094  0.880976
  0.516650  0.199774  0.669196
  0.257854  0.347378  0.531405
  0.937391  0.676311  0.538508
  0.863857  0.184966  0.012621
  0.419509  0.662163  1.018713
  0.388875  0.180584  0.485972
EA728
 1.0000000000000000
     5.406000   -0.000000   -0.000000
     0.000000    5.406000   -0.000000
     0.000000    0.000000    2.792000
 H   O  
   8   4
Direct
  0.511212  0.620011  0.309741
  0.614817  0.446222  0.692821
  0.628721  0.096769  0.659052
  0.634969 -0.188196  0.712060
 -0.101186  0.626300 -0.005309
  0.120363  0.474922  0.185438
  0.071979 -0.026466  0.070331
  0.284189 -0.180859  0.284871
  0.466346  0.477328  0.504857
  0.729823 -0.039464  0.779863
 -0.045976  0.457818  0.056649
  0.238840 -0.012755  0.196009
EA727
 1.0000000000000000
     2.892000   -0.000000    0.000000
     0.000000    5.313000   -0.000000
    -1.444000    0.000000    5.312239
 H   O  
   8   4
Direct
  0.057138  0.185382  0.084391
  0.557930  0.142684  0.262721
  0.166664  0.273293  0.600437
  0.611635  0.357969  0.798214
  0.598061  0.999807  0.812854
  0.663668  0.766234  0.659136
  0.588763  0.493159  0.296603
  0.570300  0.784310  0.291351
  0.222225  0.141358  0.258714
  0.268194  0.343594  0.769518
  0.749264  0.834388  0.829780
  0.788595  0.642347  0.323846
EA22
 1.0000000000000000
     4.869000   -0.000000    0.000000
     0.000000    4.869000   -0.000000
    -2.434500    2.434500    3.442903
 H   O  
   8   4
Direct
  0.273328  0.055279  0.481622
  0.023565  0.139063  0.072702
  0.982619  0.768361  0.985086
  0.768250  0.909098  0.553011
  0.481911  0.271046  0.982082
  0.260672  0.410556  0.550503
  0.729489  0.527942  0.482156
  0.518731  0.657640  0.053142
  0.090532  0.238002  0.216956
  0.851933  0.979729  0.726077
  0.350732  0.481758  0.723063
  0.600051  0.734958  0.219691
EA174
 1.0000000000000000
     4.590000    0.000000    0.000000
    -0.054394    4.589678   -0.000000
     0.005747   -0.055715    3.873595
 H   O  
   8   4
Direct
  0.118691  0.750638  0.470132
  0.150195  1.087921  0.472022
  0.661449  0.788762  0.963433
  0.498341  1.000199  0.723944
  0.819136  0.449565  0.552409
  0.867250  0.456500  0.164167
  0.275786  0.477007  1.062282
  0.380231  0.456540  0.686320
  0.162533  0.917044  0.321285
  0.689112  0.960520  0.821514
  0.712827  0.463842  0.335993
  0.208546  0.426732  0.829593
EA537
 1.0000000000000000
     4.869000   -0.000000   -0.000000
    -2.434500    4.216678   -0.000000
     0.000000   -2.811118    3.975522
 H   O  
   8   4
Direct
  0.089529  0.218696  0.113308
 -0.020305 -0.203039 -0.097795
  0.617966  0.220176  0.614517
  0.466704 -0.214424  0.395588
  0.358691  0.733282  0.873752
  0.236891  0.306298  0.649982
  0.851176  0.722596  0.377250
  0.726812  0.295048  0.152690
 -0.109341 -0.048335 -0.017943
  0.403074 -0.034632  0.485997
  0.154997  0.468294  0.737672
  0.646505  0.458626  0.234880
EA4
 1.0000000000000000
     3.683000   -0.000000   -0.000000
     0.000000    3.683000   -0.000000
     0.000000    0.000000    6.015000
 H   O  
   8   4
Direct
  0.104867  0.120903  0.097021
 -0.062039 -0.038142 -0.116667
  0.388095  0.638423  0.836742
  0.546882  0.463526  0.627681
  0.627027  0.606728  0.343152
  0.463613  0.450306  0.126718
 -0.121323  0.120003  0.594376
  0.057910 -0.032515  0.381661
 -0.019555 -0.090675  0.039529
  0.537423  0.435191  0.787918
  0.459680  0.424200  0.287463
  0.030909 -0.075505  0.540207
EA140
 1.0000000000000000
     4.732000    0.000000    0.000000
    -1.229358    4.569519   -0.000000
     0.006777   -1.064962    3.774638
 H   O  
   8   4
Direct
  0.720158  0.239065  0.045145
  0.784461  0.050896  0.281957
  0.076735  0.225809  0.694100
  0.291033  0.079407  0.457279
  0.491641  0.720992  0.323444
  0.593508  0.572690  0.585197
  1.103384  0.597987 -0.235244
  1.009781  0.735196  0.132575
  0.632547  0.059979  0.121211
  0.127764  0.035983  0.603348
  0.425488  0.558101  0.433785
  0.934054  0.593233 -0.094973
EA731
 1.0000000000000000
     4.869000    0.000000    0.000000
     2.434500    4.216678   -0.000000
     2.434500    1.405559    3.975522
 H   O  
   8   4
Direct
  0.143810  0.335634  0.386451
  0.278470  0.156891  0.137354
  0.373669  0.592575  0.633496
  0.533015  0.411831  0.380946
  0.630699  0.836709  0.894382
  0.772406  0.667223  0.634871
 -0.129673  0.095021  0.125380
  0.042517 -0.104398 -0.112619
  0.350346  0.240920  0.225696
  0.589509  0.494112  0.483656
  0.840789  0.742077  0.735596
  0.092020 -0.014653 -0.009403
EA181
 1.0000000000000000
     4.869000    0.000000   -0.000000
     2.434500    4.216678    0.000000
    -2.434500   -1.405559    3.975522
 H   O  
   8   4
Direct
  0.428720  0.599157  0.650142
  0.508078  0.409198  0.318229
  0.142422  0.366095  0.859336
  0.280702  0.153370  0.565867
 -0.093665  0.096370  0.123437
  0.020652 -0.090494 -0.185422
  0.646582  0.868771  0.365385
  0.776684  0.659992  0.065855
  0.612567  0.486124  0.560886
  0.352274  0.234785  0.809735
  0.106259 -0.012586  0.058564
  0.853355  0.737108  0.309657
EA222
 1.0000000000000000
     4.897000   -0.000000   -0.000000
     0.000000    3.808000   -0.000000
     0.000000    0.000000    4.377000
 H   O  
   8   4
Direct
  0.355418  0.417451  0.333527
  0.514813  0.300492  0.618549
  0.851832  0.934873  0.325892
  1.010851  0.805888  0.607607
  0.852327  0.433863  0.826223
  1.011915  0.306188  1.107858
  0.353684  0.926816  0.839675
  0.516323  0.801424  1.119366
  0.518606  0.468828  0.454136
  1.018008  0.975339  0.444200
  1.018935  0.474706  0.943722
  0.521280  0.969735  0.955001
EA664
 1.0000000000000000
     2.956000   -0.000000   -0.000000
     0.000000    5.707000   -0.000000
     1.477595   -0.000000    4.836317
 H   O  
   8   4
Direct
  0.489226 -0.005303  0.792394
  0.146438  0.184181  0.760755
  0.973934  0.555088  0.278408
  0.657144  0.349069  0.265259
  0.829257  1.024756  0.151427
  0.367942  0.881533  0.243070
  0.332886  0.502409  0.703934
 -0.123150  0.646034  0.746715
  0.464076  0.163235  0.774635
  0.972155  0.384776  0.275905
  0.692025  0.883034  0.249705
  0.204806  0.659361  0.744836
EA546
 1.0000000000000000
     4.841000   -0.000000    0.000000
     0.000000    4.841000   -0.000000
     2.372246   -2.372613    3.482823
 H   O  
   8   4
Direct
 -0.077010  0.277673  0.694018
  0.083256  0.540019  0.659268
  0.397362  0.778392  0.633419
  0.586851  1.032338  0.666879
  0.151253  0.537390  0.139818
  0.343095  0.788075  0.168288
  0.670310 -0.012915  0.121636
  0.802805  0.285839  0.178659
  0.130106  0.299835  0.529510
  0.623168  0.792710  0.529021
  0.378315  0.548981  0.034463
  0.875868  0.043081  0.023617
EA189
 1.0000000000000000
     4.754000   -0.000000    0.000000
     2.128350    4.250958   -0.000000
    -2.118996   -1.339174    4.039429
 H   O  
   8   4
Direct
  0.390343  0.719247  0.404196
  0.610767  0.458251  0.580275
  0.113927  0.503584  0.678767
  0.352808  0.206949  0.805416
  0.608760  1.014529  0.184040
  0.845597  0.707314  0.295021
  0.884623  0.218162 -0.099736
  1.108181 -0.041093  0.078028
  0.511718  0.696709  0.624601
  0.264593  0.447439  0.880788
  0.763855  0.947831  0.379554
  1.007722  0.197178  0.121132
EA591
 1.0000000000000000
     4.884000   -0.000000    0.000000
    -0.000184    3.509000    0.000000
    -0.108074   -0.415620    4.762678
 H   O  
   8   4
Direct
  0.410587  1.038855  0.750046
  0.298851  0.647750  0.810248
  0.901572  0.562228  0.808956
  0.828089  0.142404  0.837168
  0.686284  1.069923  0.175243
  0.776210  0.967014  0.471785
  0.307434  0.566226  0.304864
  0.180378  0.242996  0.457532
  0.240070  0.907358  0.781394
  0.746440  0.395619  0.833108
  0.652821  0.888685  0.313885
  0.152082  0.392485  0.297462
EA27
 1.0000000000000000
     3.930000   -0.000000   -0.000000
     0.000000    3.930000   -0.000000
     0.000000    0.000000    5.284000
 H   O  
   8   4
Direct
  0.151252  0.078888  0.194804
 -0.187803  0.080911  0.339123
  0.152713  0.081489  0.696696
 -0.187561  0.081504  0.839324
  0.652845  0.581009 -0.052548
  0.312323  0.580758  0.089785
  0.652420  0.581369  0.447143
  0.312146  0.581108  0.589742
 -0.018768 -0.072735  0.267465
 -0.017663 -0.071171  0.767684
  0.482513  0.428202  0.018413
  0.482432  0.428572  0.518439
EA119
 1.0000000000000000
     4.823000   -0.000000   -0.000000
     0.000000    3.404000   -0.000000
     0.000000    0.000000    4.971000
 H   O  
   8   4
Direct
  0.012605  0.339889  0.101429
  0.186212  0.263340  0.355038
  0.022960  0.844470  0.609040
  0.167311  0.747726  0.877860
  0.511728  0.845559  0.115897
  0.673223  0.757664  0.376169
  0.505387  0.311750  0.601465
  0.690187  0.259596  0.849153
  0.014662  0.184360  0.266150
  0.012603  0.669621  0.763297
  0.516310  0.667518  0.268824
  0.514013  0.175217  0.773106
EA694
 1.0000000000000000
     2.939000   -0.000000   -0.000000
     0.000000    9.625000   -0.000000
    -0.560284    0.000000    2.885100
 H   O  
   8   4
Direct
  0.159841  0.062160  0.304673
 -0.093802  0.200168  0.152354
  0.586820  0.558262  0.190500
  0.451218  0.711886  0.219442
  0.551387  0.454756  0.672410
  0.362945  0.305631  0.683857
  0.049851  0.959455  0.749471
 -0.055324  0.802941  0.740329
  0.009637  0.141040  0.420512
  0.641114  0.639547  0.387944
  0.553635  0.374406  0.870945
  0.106486  0.875854  0.934499
EA47
 1.0000000000000000
     5.060000   -0.000000   -0.000000
     0.000000    5.060000   -0.000000
     0.000000    0.000000    3.188000
 H   O  
   8   4
Direct
  0.848558  0.728490  0.477931
  0.894317  0.509225  0.808211
  0.517771  0.644127  0.432986
  0.393377  0.630044 -0.007273
  0.553992 -0.004390  0.381803
  0.801821  0.138698  0.559989
  0.288043  0.124311  0.784223
  0.150945  0.049360  1.200988
  0.845929  0.694490  0.778827
  0.348759  0.639790  0.290311
  0.641693  0.166802  0.395969
  0.127858  0.154670  0.946441
EA441
 1.0000000000000000
     5.694000    0.000000   -0.000000
    -2.847000    4.931149   -0.000000
     0.000000    0.000000    2.907000
 H   O  
   8   4
Direct
 -0.114197 -0.107447  0.657989
  0.132021  0.017039  0.326010
  0.471542  0.026017  0.268412
  0.639039  0.046367 -0.159815
  0.360392  0.392879  0.177118
  0.654005  0.524338 -0.004909
 -0.045589  0.505528  0.175935
  0.163726  0.527944 -0.169515
 -0.000644  0.053132  0.472460
  0.466490  0.027897 -0.063313
  0.512875  0.564588  0.072582
 -0.014077  0.511539 -0.151868
EA49
 1.0000000000000000
     3.845000   -0.000000   -0.000000
     0.000000    5.077000   -0.000000
     0.000000    0.000000    4.181000
 H   O  
   8   4
Direct
  0.592382  0.378638  0.178602
  0.258437  0.295062  0.348861
  0.327539  0.898787  0.662944
  0.457925  0.739634  0.954750
  0.917137  0.566657  0.918222
  0.799817  0.379905  0.652589
  0.826590  0.790689  0.312337
  1.141565  0.936566  0.167249
  0.420277  0.442364  0.329375
  0.505246  0.896546  0.827557
  0.959823  0.390902  0.831414
  0.960394  0.953793  0.327576
EA109
 1.0000000000000000
     4.822000    0.000000    0.000000
    -2.335175    4.218843    0.000000
     0.006144   -2.676226    4.011167
 H   O  
   8   4
Direct
  0.358432  0.362281  0.697714
  0.224529  0.467861  0.502994
  0.863118  0.394415  0.219032
  0.710842  0.458331 -0.003938
  0.626530  0.926423  0.335977
  0.277744  0.793899  0.157064
  1.148695  0.984036  0.922659
  0.829682  0.845675  0.686324
  0.151054  0.297593  0.578069
  0.649599  0.306688  0.089728
  0.393128  0.795772  0.325106
  0.907868  0.815927  0.850659
EA545
 1.0000000000000000
     5.260000   -0.000000   -0.000000
     0.000000    3.037000   -0.000000
    -0.877016    0.000000    5.109276
 H   O  
   8   4
Direct
  0.874838  0.715919  0.704248
  0.774233  0.447765  0.920288
  0.243760  0.002385  0.940058
  0.259032 -0.412643  0.773692
  0.324005  0.675766  0.278982
  0.182685  0.343083  0.428017
  0.837214 -0.055024  0.291634
  0.631553  0.234162  0.383767
  0.737425  0.516646  0.734357
  0.255992 -0.092256  0.762311
  0.161747  0.517540  0.268987
  0.656859  0.034780  0.244062
EA858
 1.0000000000000000
     2.892000   -0.000000    0.000000
     0.000000    5.313000   -0.000000
    -1.444000    0.000000    5.312239
 H   O  
   8   4
Direct
  0.521667  0.045561  0.228083
  0.066599  0.203556  0.177260
  0.558310  0.985842  0.761136
  0.732065  0.803149  0.983414
  0.473810  0.740012  0.348149
  0.788137  0.544111  0.270660
  0.246066  0.280255  0.808453
  0.505527  0.324126  0.604868
  0.395383  0.210366  0.171113
  0.727241  0.827703  0.808583
  0.799763  0.713065  0.340096
  0.188917  0.308085  0.629744
EA192
 1.0000000000000000
     5.065000   -0.000000   -0.000000
     0.000000    3.487000   -0.000000
     0.000000    0.000000    4.620000
 H   O  
   8   4
Direct
  0.419244  0.729270  0.500400
  0.338747  0.304797  0.472217
  0.885585  1.052492  0.297184
  0.858674  1.010715  0.626820
  0.711706  0.191264  0.964954
  0.657494 -0.241311  0.984237
  0.225079  0.646334  0.944651
  0.079917  0.255952  0.922842
  0.491518  0.473606  0.466590
  0.989506  1.012341  0.472291
  0.568741  0.005145  0.962980
  0.053402  0.525441  0.972552
EA141
 1.0000000000000000
     4.865000   -0.000000   -0.000000
    -2.419767    4.220539   -0.000000
     0.000000   -2.781804    3.975358
 H   O  
   8   4
Direct
  0.803283  0.444162  0.484366
  0.871614  0.837509  0.765482
  0.295417  0.431169  0.034969
  0.388993  0.846193  0.263819
  0.530963 -0.083208  0.774982
  0.633655  0.335236  0.988945
  0.035748 -0.077778  0.281711
  0.128710  0.337495  0.487920
  0.691104  0.569809  0.589127
  0.197326  0.576861  0.110510
  0.437832  0.067266  0.854834
 -0.062424  0.067292  0.344421
EA164
 1.0000000000000000
     4.499000   -0.000000   -0.000000
    -1.104171    4.361400   -0.000000
     0.000000   -1.088626    4.159915
 H   O  
   8   4
Direct
  0.581037  0.782650  0.246655
  0.257064  0.581749  0.130626
  1.089589  0.902955  0.654584
  0.919704  0.568101  0.470941
  0.686223  0.190607  0.588626
  0.354100  0.219799  0.578848
  0.183258  0.170392  0.078924
 -0.150094  0.198166  0.075074
  0.409687  0.763206  0.099009
  0.884947  0.763102  0.600761
  0.515638  0.211113  0.725128
  0.011675  0.180991  0.215790
EA567
 1.0000000000000000
     2.939000   -0.000000   -0.000000
     0.000000    9.625000   -0.000000
    -0.560284    0.000000    2.885100
 H   O  
   8   4
Direct
 -0.153312  0.066317  0.276536
 -0.051707  0.222211  0.294926
  0.035641  0.948798  0.649411
  0.105009  0.791322  0.650562
  0.409464  0.629001 -0.018636
  0.573882  0.709092  0.434947
  0.601543  0.382440  1.021303
  0.457717  0.297972  0.574535
  0.095058  0.132495  0.266023
 -0.045045  0.864557  0.796523
  0.381869  0.631564  0.303819
  0.634780  0.378955  0.700489
EA555
 1.0000000000000000
     3.761000    0.000000    0.000000
     0.002162    6.883000   -0.000000
     0.001100   -0.005007    3.151996
 H   O  
   8   4
Direct
  0.800744 -0.040336  0.267034
  0.618073  0.026859  0.692453
 -0.026887  0.880259  0.711860
  0.273894  0.866889  1.036784
  0.448930  0.436243  1.184441
  0.691011  0.566888  0.927764
  0.311267  0.212726  0.961469
 -0.092512  0.208243  1.006073
  0.605613  0.038001  0.383871
  0.125206  0.787778  0.853864
  0.623486  0.538668  1.220150
  0.095837  0.269356  0.842505
EA145
 1.0000000000000000
     4.869000   -0.000000   -0.000000
    -2.434500    4.216678   -0.000000
     0.000000   -2.811118    3.975522
 H   O  
   8   4
Direct
 -0.157397  0.441697  0.227362
  0.190595  0.679840  0.487423
  0.439585  0.564322  0.658561
  0.659994  0.628209  0.937260
  0.685350  0.174805  0.472876
  0.868687  0.044997  0.579380
  0.155482  0.166357 -0.041023
  0.350842  0.040389  0.055715
  0.035280  0.707474  0.395218
  0.536627  0.721720  0.901355
  0.795070  0.215128  0.670211
  0.277045  0.210208  0.152216
EA581
 1.0000000000000000
     4.716000   -0.000000   -0.000000
    -0.000264    3.787000   -0.000000
    -0.059445   -0.289692    4.568438
 H   O  
   8   4
Direct
  1.092626  0.430027  0.122852
  0.802448  0.601475  0.217116
  0.126675  0.916121  0.894981
  0.120326  0.926443  0.560185
  0.561102 -0.076119  0.056748
  0.332452  0.138252  0.230446
  0.622476  0.421975  0.563733
  0.621030  0.414578  0.898034
  0.924046  0.396403  0.241216
 -0.003777  0.919482  0.728555
  0.440105 -0.081187  0.228225
  0.494771  0.425104  0.728974
EA406
 1.0000000000000000
     4.678000   -0.000000    0.000000
    -2.339000    4.051267   -0.000000
    -2.339038    1.350444    4.306053
 H   O  
   8   4
Direct
  0.247453  0.567021 -0.044291
  0.379844  0.699986  0.230190
 -0.025904  0.763522  0.267801
  0.160916  0.943384  0.515616
  0.470554  0.270514  0.760943
  0.660886  0.447074  1.012054
  0.814813  0.141560  0.418407
  0.858042  0.194952  0.715398
  0.445026  0.611888  0.136328
  0.202317  0.851172  0.406886
  0.697635  0.347899  0.905980
  0.933046  0.094102  0.641639
EA680
 1.0000000000000000
     3.935000   -0.000000   -0.000000
    -0.000202    3.862000   -0.000000
     0.016405   -0.030371    5.370889
 H   O  
   8   4
Direct
  0.663292  0.209967  0.152407
  0.276358  0.200070  0.152173
  0.669517  0.200239  0.652846
  0.281998  0.201486  0.653281
  0.168301  0.701137  0.402350
 -0.219138  0.702727  0.404539
  1.168983  0.701790  0.902859
  0.781427  0.702202  0.902750
  0.473518  0.066552  0.098284
  0.475401  0.063047  0.598429
 -0.026394  0.564452  0.348417
  0.975313  0.563885  0.848525
EA82
 1.0000000000000000
     4.632000   -0.000000   -0.000000
    -1.868852    4.238256    0.000000
     0.000000   -2.042473    4.157371
 H   O  
   8   4
Direct
  0.705182  0.336294  0.263260
  1.056409  0.556277  0.246153
  0.161445  0.368942  0.776907
  0.147468  0.318984  0.427471
  0.899715  0.870169  1.034277
  0.883726  0.842484  0.691921
  0.480151 -0.309424  0.435071
  0.681712  0.087714  0.605195
  0.843910  0.384906  0.113499
  0.280378  0.335526  0.602204
  1.015654  0.844273  0.856576
  0.586025 -0.107845  0.391271
EA11
 1.0000000000000000
     2.956000   -0.000000   -0.000000
     0.000000    5.707000   -0.000000
     1.477595   -0.000000    4.836317
 H   O  
   8   4
Direct
  0.093694  0.098076  0.855511
  0.625159  0.095289  0.727369
  0.403344  0.591398  0.594719
 -0.126573  0.625183  0.746747
  0.881826  0.952473  0.203268
  0.469083  0.780932  0.237339
  0.615639  0.455652  0.285894
  1.017014  0.278945  0.257535
  0.338656  0.162519  0.703525
  0.187550  0.663522  0.756463
  0.562387  0.943425  0.189502
  0.946635  0.446392  0.278354
EA173
 1.0000000000000000
     4.541000    0.000000   -0.000000
    -1.374573    4.327959    0.000000
     0.000000   -1.390783    4.152272
 H   O  
   8   4
Direct
  0.596192  0.239093  0.111681
  0.253086  0.218954  0.114014
  1.103895  0.249023  0.624247
  0.757513  0.218639  0.610179
  0.803734  0.716611  0.820656
  0.461270  0.701771  0.819030
  0.303504  0.715466  0.322434
 -0.038747  0.701603  0.319330
  0.430498  0.238771  0.253532
  0.930330  0.239474  0.756500
  0.634927  0.713973  0.958785
  0.134741  0.715598  0.460459
EA559
 1.0000000000000000
     4.447000    0.000000    0.000000
     0.000621    4.447000    0.000000
     0.849338   -0.862622    4.126077
 H   O  
   8   4
Direct
  0.493849 -0.032615  0.922964
  0.466605 -0.022077  0.578879
  0.139709  0.433938  0.786633
  0.144222  0.776890  0.778509
  0.300462  0.822415  0.228827
  0.303725  0.479277  0.232079
  0.801539  0.327661  0.231792
  0.811358 -0.018238  0.227014
  0.479559  0.110183  0.782589
  0.008201  0.605366  0.777018
  0.440875  0.648528  0.211951
  0.936218  0.162102  0.251257
EA763
 1.0000000000000000
     3.994000   -0.000000   -0.000000
     0.000000    3.994000    0.000000
     1.997274   -1.997274    5.114924
 H   O  
   8   4
Direct
  0.305474  0.179795  0.142688
  0.229200  0.251405  0.433895
  0.523876  0.678180  0.273801
  0.900461  0.696313  0.279292
  0.757396  0.970031  0.746453
  1.135325  0.973938  0.746270
  0.224053  0.497020  0.807281
  0.600495  0.512167  0.812482
  0.220318  0.071681  0.274687
  0.714327  0.539824  0.281951
  0.970259  0.810557  0.702672
  0.394887  0.385749  0.853831
EA48
 1.0000000000000000
     4.447000    0.000000    0.000000
     1.100736    4.308618    0.000000
     0.351848   -1.225976    4.260164
 H   O  
   8   4
Direct
  0.535782  0.405093  0.462027
  0.392563  0.642927  0.780902
  1.019365  0.425973 -0.046619
  0.892948  0.640453  0.285387
  0.642867  0.848619  0.036623
  0.310561  1.063065  0.161691
  1.143269 -0.152186  0.535320
  0.811358  0.062803  0.661595
  0.369678  0.450822  0.636177
  0.870835  0.450806  0.136158
  0.493213  1.036931  0.012358
  0.993830  0.036678  0.511942
EA244
 1.0000000000000000
     3.956000   -0.000000   -0.000000
     0.000000    3.956000   -0.000000
     0.000000    0.000000    5.214000
 H   O  
   8   4
Direct
  0.073028  0.626773  0.957809
 -0.265245  0.624399  0.813943
  0.579212  0.124252  0.703324
  0.237048  0.124125  0.564598
  0.578761  0.123797  0.202883
  0.235820  0.124510  0.065072
  0.079849  0.623381  0.453525
 -0.263106  0.623426  0.315786
 -0.094442  0.473763  0.885046
  0.408116 -0.027605  0.634013
  0.406819 -0.027633  0.134218
 -0.091766  0.471601  0.384859
EA198
 1.0000000000000000
     4.485000    0.000000   -0.000000
    -1.027811    4.365642    0.000000
     0.000000   -1.009767    4.168440
 H   O  
   8   4
Direct
  0.114452  0.550311  0.943794
 -0.004320  0.394439  0.596972
  0.614454  0.557462  0.432741
  0.496206  0.394830  0.087670
  0.201951  0.996599  0.437140
 -0.133800  0.880189  0.301166
  0.701536  0.994366  0.936677
  0.365859  0.873988  0.801944
 -0.031090  0.557732  0.777460
  0.468310  0.560402  0.265439
  0.057252  1.027525  0.284868
  0.556250  1.020870  0.782585
EA75
 1.0000000000000000
     4.558000    0.000000   -0.000000
    -1.633070    4.255402    0.000000
     0.000000   -1.749196    4.209000
 H   O  
   8   4
Direct
  0.586186  0.890127  0.130342
  0.586650  0.915570  0.475620
  0.091135  0.891894  0.634539
  0.089255  0.918619  0.980095
  0.376213  0.552636  0.614745
  0.374547  0.269565  0.301799
 -0.128253  0.548792  1.109053
 -0.129071  0.266219  0.796133
  0.723974  0.918926  0.311271
  0.228059  0.922432  0.817022
  0.473853  0.390457  0.523019
 -0.030598  0.386566  1.017625
EA759
 1.0000000000000000
     5.303000   -0.000000    0.000000
     0.000000    5.548000   -0.000000
     0.499025   -0.000000    2.773463
 H   O  
   8   4
Direct
  0.796014  0.402325  0.274729
  0.774634  0.557411 -0.164891
  0.280609  0.039057  0.344527
  0.260540 -0.111478 -0.101741
  0.279818  0.244965  0.897766
  0.282923  0.524183  0.865446
  0.770480  0.205233  0.838585
  0.774794 -0.075040  0.836346
  0.786393  0.568711  0.168313
  0.278800 -0.125988  0.227969
  0.282307  0.378271  0.671857
  0.771256  0.065480  0.628883
EA436
 1.0000000000000000
     2.732000   -0.000000   -0.000000
     0.000000    5.465000   -0.000000
     0.000000    0.000000    5.465000
 H   O  
   8   4
Direct
 -0.224608  0.081056  0.467900
  0.242456 -0.017858  0.589830
  0.143879  0.631416  0.603249
  0.119370  0.348839  0.578805
 -0.191159  0.009440  0.083857
 -0.163007  0.167282 -0.149728
 -0.116220  0.657291  0.264623
 -0.083780  0.499690  0.031634
  0.061464 -0.020769  0.435948
  0.203091  0.479794  0.692450
 -0.313175  0.019611 -0.082995
 -0.217376  0.500912  0.196265
EA795
 1.0000000000000000
     4.126000   -0.000000   -0.000000
     0.000000    3.830000   -0.000000
     0.000000    0.000000    5.165000
 H   O  
   8   4
Direct
  0.195652 -0.022309 -0.048312
 -0.142364 -0.053147  0.073563
  0.621290  0.033727  0.491217
  0.326439 -0.111876  0.637439
  1.137937  0.419479  0.318928
  1.008556  0.534416  0.589624
  0.488973  0.535798 -0.145877
  0.489710  0.554992  0.153140
 -0.009952 -0.142630 -0.068550
  0.465545 -0.154471  0.489187
  0.971546  0.370769  0.447808
  0.492816  0.390607  0.009521
EA341
 1.0000000000000000
     4.733000    0.000000   -0.000000
     1.577649    4.462321    0.000000
     1.577649   -2.231124    3.864505
 H   O  
   8   4
Direct
  0.042055 -0.198081 -0.016058
 -0.009043  0.121874 -0.057609
 -0.012571  0.277813  0.458789
 -0.209907  0.671358  0.655383
  0.552322  0.812155  0.376044
  0.546775  1.140877  0.385693
  0.445876  0.242897  1.021936
  0.354847  0.614236  1.108942
  0.150714 -0.057873 -0.042256
 -0.104650  0.474565  0.682219
  0.610210  0.985935  0.473815
  0.428932  0.448614  1.183264
EA370
 1.0000000000000000
     4.334000   -0.000000    0.000000
     0.000000    3.753000   -0.000000
     1.895686   -0.000000    5.016786
 H   O  
   8   4
Direct
  0.200174  0.464394  0.234285
  0.545661  0.473606  0.245147
  0.931294  0.447031  0.666602
  0.622281  0.619948  0.860003
  0.443827 -0.033467  0.672360
  0.096949 -0.026810  0.663865
  0.710184 -0.053126  0.242117
  1.019014  0.119699  0.048368
  0.367074  0.627471  0.242627
  0.756082  0.607588  0.672925
  0.275013  0.128282  0.665850
  0.885807  0.106986  0.235557
EA176
 1.0000000000000000
     2.867000   -0.000000   -0.000000
     0.000000    2.867000   -0.000000
     0.000000    0.000000    9.931000
 H   O  
   8   4
Direct
  0.346811  0.521038  0.565787
  0.559187  0.433397  0.424868
  0.072914  0.504269  0.324204
 -0.023973  0.459435  0.171642
  0.410122 -0.180760  0.826515
  0.589533  0.190271  0.731401
  0.088940 -0.042365  0.073975
 -0.257174  0.163596 -0.025417
  0.369468  0.288350  0.494412
 -0.097286  0.647638  0.250406
  0.575062 -0.140619  0.741733
  0.073688  0.133122 -0.009614
EA726
 1.0000000000000000
     3.443000   -0.000000   -0.000000
     0.000000    6.885000   -0.000000
     0.000000    0.000000    3.443000
 H   O  
   8   4
Direct
  0.688401  0.172927  0.478201
  0.486755  0.372357  0.522398
  0.605740  0.665736  0.392787
  0.472523  0.872385  0.498843
 -0.074598 -0.159985  0.024938
  0.220017  0.009103  0.040571
 -0.178753  0.405525 -0.092720
  0.229800  0.482751  0.010311
  0.454752  0.234355  0.580296
  0.434302  0.735895  0.565859
 -0.057505 -0.019302  0.058284
 -0.046140  0.506295  0.054314
EA599
 1.0000000000000000
     2.819000   -0.000000    0.000000
     0.000000    7.595000   -0.000000
    -0.957296    0.000000    3.810594
 H   O  
   8   4
Direct
  0.776881  0.099749  0.964548
  0.612308  0.227603  0.651451
  0.281556  0.577244  0.654972
  0.412383  0.726006  0.928814
 -0.023732  0.833365  0.083054
  0.350100  0.828295  0.435586
  1.042250  0.330276  0.489025
  0.653030  0.335283  0.143088
  0.487575  0.144715  0.795923
  0.555577  0.643772  0.793483
  0.204108  0.907579  0.246433
  0.814455  0.409508  0.337348
EA169
 1.0000000000000000
     4.861000    0.000000    0.000000
    -2.407614    4.222880    0.000000
     0.000000   -2.758886    3.975484
 H   O  
   8   4
Direct
  0.808021  1.084152  0.722883
  0.537024  0.679861  0.633754
  1.086681  0.602252  0.742539
  0.702957  0.352308  0.600130
  0.016060  0.937209  0.152284
  0.138450  0.704260  0.172479
  0.546727  0.409445  0.197353
  0.214045  0.274090 -0.016026
  0.709955  0.941643  0.823330
  0.902261  0.414771  0.530770
  0.166495  0.952848  0.301808
  0.454605  0.433583  0.037588
EA894
 1.0000000000000000
     3.961000   -0.000000   -0.000000
     0.000000    3.961000   -0.000000
     0.000000    0.000000    5.203000
 H   O  
   8   4
Direct
 -0.154564 -0.007507  0.020523
  0.189018 -0.008762  0.157722
 -0.136018 -0.029789  0.522969
  0.206422 -0.026885  0.660492
  0.341517  0.460982  0.395613
  0.726486  0.458361  0.400391
  0.350628  0.484801 -0.222151
  0.690164  0.488427 -0.081016
  0.016807 -0.159147  0.088289
  0.039217 -0.180040  0.587487
  0.533909  0.318869  0.352360
  0.518872  0.335200 -0.147609
EA403
 1.0000000000000000
     4.334000   -0.000000    0.000000
     0.000000    3.753000   -0.000000
     1.895686   -0.000000    5.016786
 H   O  
   8   4
Direct
  0.546276  0.594261  0.165534
  0.243580  0.431754  0.372722
  1.099229 -0.064205  0.336214
  0.746268 -0.056483  0.342378
  0.663357  0.593557  0.624247
  0.883868  0.744409  0.771368
  0.161959  0.074809  0.636943
  0.380611 -0.081524  0.783831
  0.428412  0.584036  0.355623
  0.925101  0.097946  0.337618
  0.729321  0.555372  0.777286
  0.217508  0.101330  0.796870
EA208
 1.0000000000000000
     2.867000   -0.000000   -0.000000
     0.000000    7.585000   -0.000000
     0.000000    0.000000    3.753000
 H   O  
   8   4
Direct
  0.450608  0.265200  0.849962
  0.638656  0.451595  0.830403
  0.273868  0.196588  0.360153
  0.018093  0.020638  0.358575
  0.165604  0.788514  0.567104
  0.000721  0.920915  0.853799
  0.166216  0.650324  0.121144
  0.474219  0.529904  0.348893
  0.647732  0.340417  0.705002
  0.102571  0.117682  0.204374
 -0.109539  0.829369  0.692433
  0.485480  0.630694  0.189948
EA196
 1.0000000000000000
     4.688000    0.000000   -0.000000
     1.940507    4.267526    0.000000
    -1.940507   -1.249326    4.080559
 H   O  
   8   4
Direct
  0.669331  0.986635  0.418417
  0.478487  0.742398  0.183892
  0.695145  0.360338  0.729415
  0.545491  0.575711  0.502147
  0.876555  0.232793  0.145900
  0.775184 -0.076058 -0.098746
  0.375947  1.065791  0.959393
  0.090536  1.056404  0.636691
  0.701936  0.754940  0.301786
  0.485484  0.480501  0.608512
  0.961509 -0.005270  0.071053
  0.224497  1.195531  0.809170
EA686
 1.0000000000000000
     4.003000    0.000000    0.000000
    -0.000069    3.945000    0.000000
     0.008300   -0.015607    5.168970
 H   O  
   8   4
Direct
  0.542808  0.142109  0.336077
  0.889063  0.142714  0.207954
  0.045314  0.641654  0.592531
  0.387681  0.641657  0.458192
  0.046525  0.642036  1.092459
  0.388755  0.641653  0.957968
  0.545740  0.141565  0.842131
  0.887694  0.141243  0.707242
  0.716837  0.294644  0.274196
  0.216130  0.793848  0.525143
  0.217678  0.794054  1.025329
  0.716405  0.293597  0.774300
EA120
 1.0000000000000000
     4.727000   -0.000000   -0.000000
     0.000000    3.828000   -0.000000
     0.000000    0.000000    4.510000
 H   O  
   8   4
Direct
  0.983521  0.704207  0.286988
  0.921268  0.319359  0.356452
  0.211237  0.708308  0.735764
  0.187720  0.311957  0.719670
  0.690584  0.202845  0.015597
  0.732653 -0.184972 -0.047571
  0.436595  0.225917  0.379842
  0.448161 -0.172724  0.370221
  0.826982  0.544720  0.336320
  0.167261  0.504430  0.857060
  0.662163  0.028215 -0.138045
  0.313116  0.021193  0.370550
EA129
 1.0000000000000000
     4.577000   -0.000000    0.000000
    -1.667066    4.262607    0.000000
     0.048968   -1.854602    4.184135
 H   O  
   8   4
Direct
  0.571608  0.071378  0.392799
  0.571318  0.366087  0.699956
  0.298329  0.578156  0.662548
  0.310679  0.881565  0.968403
  0.790829  0.529257  0.089475
  0.788391  0.823935  0.397369
  0.058394  0.234328 -0.010066
  0.382192  0.368155  0.199475
  0.667707  0.201718  0.616690
  0.406277  0.717130  0.881463
  0.872753  0.649188  0.316160
  0.156549  0.234592  0.178957
EA172
 1.0000000000000000
     4.529000    0.000000   -0.000000
    -1.517100    4.267347   -0.000000
     0.000000   -1.606211    4.222844
 H   O  
   8   4
Direct
  0.446858  0.216942  0.311202
  0.790605  0.234326  0.342206
  0.882729  0.834796  0.070649
  0.911464  0.669038  0.307959
  0.266177  0.241332  0.805106
  0.021307  0.366464  0.998487
  0.377605  0.831920  0.566682
  0.419488  0.667280  0.801748
  0.607449  0.222599  0.457932
  0.762482  0.660977  0.146425
  0.140645  0.219891  0.977129
  0.265048  0.655139  0.643044
EA76
 1.0000000000000000
     4.483000    0.000000   -0.000000
    -1.346795    4.275913    0.000000
     0.000000   -1.412652    4.256717
 H   O  
   8   4
Direct
  1.014660  0.545098  0.149307
  0.664942  0.518160  0.138499
  0.511654  0.547800  0.648986
  0.160806  0.515524  0.642804
  0.299349  0.067943  0.935695
 -0.051137  0.038552  0.930894
  0.799577  0.069383  0.438348
  0.448063  0.034522  0.426642
  0.840425  0.539396  0.280571
  0.339393  0.539833  0.782650
  0.127128  0.058981  1.069383
  0.625518  0.061507  0.569678
EA337
 1.0000000000000000
     2.939000   -0.000000   -0.000000
     0.000000    9.625000   -0.000000
    -0.560284    0.000000    2.885100
 H   O  
   8   4
Direct
 -0.142034  0.107941  0.448104
  0.113716  0.214937  0.208629
  0.412738  0.369208  0.997773
  0.634956  0.283153  0.660607
  0.591552  0.552666  0.410594
  0.280154  0.637181  0.031423
 -0.121776  0.787447  0.534430
  0.179530  0.836277  0.991975
 -0.048415  0.126598  0.155406
  0.450238  0.366373  0.678053
  0.603766  0.623409  0.176706
 -0.033929  0.869970  0.720508
EA890
 1.0000000000000000
     5.784000    0.000000    0.000000
     0.695492    2.962455   -0.000000
    -2.254592    1.091820    4.763473
 H   O  
   8   4
Direct
  0.051894 -0.051059  0.341982
  0.153260  0.354921  0.280422
  0.986353  1.022741  0.725106
  0.843358  0.649556  0.722250
  0.515824  0.476216  0.284080
  0.656888  0.851564  0.279816
  0.475299  0.532470  0.706492
  0.347963  0.137690  0.713248
 -0.006064  0.283655  0.271353
  1.015130  0.688849  0.751593
  0.489350  0.808218  0.264186
  0.517796  0.196073  0.753119
EA440
 1.0000000000000000
     3.765000   -0.000000   -0.000000
     0.000000    3.765000   -0.000000
     0.000000    0.000000    5.756000
 H   O  
   8   4
Direct
  1.087073  0.492607  0.626194
  0.830819  0.571747  0.424437
  0.581156 -0.011625  0.830892
  0.353683 -0.059889  0.612939
  0.589265 -0.002372  0.331951
  0.379574  0.066287  0.107658
  0.076899  0.485535  0.124610
 -0.165117  0.464900 -0.088838
  1.077498  0.512518  0.459138
  0.569844  0.054545  0.669248
  0.576537 -0.069666  0.170409
  0.083520  0.464144 -0.041751
EA43
 1.0000000000000000
     4.385000    0.000000    0.000000
     0.738147    4.322426    0.000000
     0.234690   -0.788911    4.307060
 H   O  
   8   4
Direct
  0.800773  0.772286  0.732641
  1.102971  0.898768  0.696225
  0.424100  0.748200  0.252755
  0.575883  0.977498  0.085951
 -0.117826  0.241749 -0.065753
  0.108483  0.472039 -0.031995
  0.402621  0.236343  0.434756
  0.629436  0.465262  0.475511
  0.917374  0.867983  0.590651
  0.395271  0.873536  0.088948
 -0.062928  0.411659  0.079864
  0.450828  0.410465  0.580196
EA697
 1.0000000000000000
     4.649000    0.000000   -0.000000
     2.324112    4.189533    0.000000
    -2.324112   -0.000039    4.189533
 H   O  
   8   4
Direct
  0.483598  1.095685 -0.124637
  0.501613  1.090986  0.203209
  0.460925  0.413101  0.446366
  0.460643  0.436290  0.770916
 -0.055710 -0.144499 -0.139380
  0.163803 -0.258575  0.208586
  0.770097  0.561542  0.204492
  0.987859  0.438898  0.547667
  0.432488  0.997752 -0.009040
  0.606753  0.310238  0.654567
  0.105374 -0.338112 -0.010666
  0.916515  0.365604  0.327389
EA760
 1.0000000000000000
     2.944000   -0.000000   -0.000000
     0.000000    5.625000   -0.000000
     0.000000    0.000000    4.928000
 H   O  
   8   4
Direct
  0.875567  0.737768  0.350664
  0.499488  0.924799  0.298840
  0.185838  0.181318  0.681180
  0.585370  0.010045  0.723270
  0.513042  0.237227  0.170591
  0.188768  0.439080  0.234557
  0.503627  0.712540  0.850894
  0.808073  0.503776  0.783523
  0.547114  0.756528  0.337796
  0.515201  0.175962  0.685804
  0.191331  0.271203  0.185855
  0.822646  0.670546  0.836379
EA131
 1.0000000000000000
     4.584000   -0.000000   -0.000000
    -1.604526    4.294013    0.000000
     0.046170   -1.742757    4.147489
 H   O  
   8   4
Direct
  0.745541  0.100175  0.802991
  0.949797 -0.042185  0.561076
  0.038721  0.609020  0.578905
  0.284068  0.495689  0.381641
  0.491725  0.475026  0.869734
  0.818760  0.592366  1.060946
  0.259087  0.080771  0.298926
  0.453062 -0.072960  0.051246
  0.798157 -0.097219  0.704498
  0.154930  0.462972  0.547904
  0.597900  0.456930  1.044592
  0.288756 -0.127219  0.183453
EA257
 1.0000000000000000
     5.455000   -0.000000   -0.000000
     0.000000    3.146000   -0.000000
     0.000000    0.000000    4.755000
 H   O  
   8   4
Direct
 -0.097725  0.402661  0.080704
  0.129508  0.438198  0.266083
  0.423391  0.412274  0.561032
  0.640149  0.433157  0.764866
 -0.082381  0.916251  0.571365
  0.139928  0.932612  0.767627
  0.401630  0.942256  0.058470
  0.613023  0.927166  0.266294
  0.061482  0.542790  0.091023
  0.580981  0.553377  0.590272
  0.078357  1.049276  0.592705
  0.565682  1.056123  0.090350
EA8
 1.0000000000000000
     5.407000   -0.000000   -0.000000
     0.000000    5.407000   -0.000000
     0.000000    0.000000    2.792000
 H   O  
   8   4
Direct
 -0.033300  0.118295  0.178780
  0.008919 -0.038996 -0.269445
  0.379202  0.492683  0.503054
  0.561595  0.290150  0.343922
 -0.124706  0.598391  0.431762
  0.076233  0.481299  0.126928
  0.436555 -0.099990  0.586471
  0.651548 -0.009760  0.893040
 -0.006175  0.131309 -0.158505
  0.542178  0.425787  0.571684
  0.041726  0.629250  0.313819
  0.485005 -0.075437  0.914339
EA308
 1.0000000000000000
     4.733000    0.000000   -0.000000
     1.577649    4.462321    0.000000
     1.577649   -2.231124    3.864505
 H   O  
   8   4
Direct
  0.657409 -0.004041  0.015964
  0.301117  0.104882  0.045628
  0.716009  0.682426  0.448712
  0.505581  0.499986  0.508384
  0.278849  0.611006 -0.049559
 -0.030778  0.608827 -0.086129
  0.165499 -0.118982  0.479756
 -0.123691  0.166250  0.484127
  0.473013 -0.060942  0.063374
  0.668064  0.508652  0.328028
  0.199218  0.455975 -0.139775
 -0.084094  0.021373  0.587887
EA469
 1.0000000000000000
     2.939000   -0.000000   -0.000000
     0.000000    9.625000   -0.000000
    -0.560284    0.000000    2.885100
 H   O  
   8   4
Direct
  0.049688  0.056702  0.311141
  0.028006  0.216228  0.289351
  0.574461  0.559636  0.329605
  0.546779  0.718859  0.284390
  0.051683  0.948307  0.848911
  0.056552  0.789425  0.779025
  0.514272  0.452092  0.820905
  0.546747  0.293275  0.794233
 -0.125002  0.133647  0.147964
  0.396532  0.634868  0.154600
 -0.105839  0.873059  0.656634
  0.380214  0.372444  0.641449
EA761
 1.0000000000000000
     5.573000   -0.000000   -0.000000
     0.000000    5.573000   -0.000000
     0.000000    0.000000    2.627000
 H   O  
   8   4
Direct
  0.454461  0.087571  0.508894
  0.630859 -0.040040  0.864119
  0.107770  0.519101  0.301933
  0.260177  0.304451  0.479930
  0.455259  0.681401  0.216074
  0.602716  0.459519  0.381840
 -0.004404 -0.041547 -0.102972
  0.273018 -0.051269 -0.069527
  0.601161  0.114615  0.702711
  0.095130  0.353943  0.417418
  0.619117  0.623167  0.256231
  0.128874 -0.141688  0.013909
EA116
 1.0000000000000000
     2.880000   -0.000000   -0.000000
     0.000000    2.880000   -0.000000
     0.000000    0.000000    9.837000
 H   O  
   8   4
Direct
  0.730787  0.356464  0.401490
  0.351815  0.720852  0.400159
  0.152463  0.256376  0.892011
 -0.218930 -0.114645  0.898332
  0.302940  0.618272  0.665798
  0.675095  0.247174  0.671295
 -0.293614  0.113190  0.170707
  0.094665 -0.243109  0.171627
  0.398404  0.390216  0.405243
  0.113113 -0.075308  0.895422
  0.634949  0.578957  0.667585
  0.039092  0.086494  0.166778
EA144
 1.0000000000000000
     4.955000    0.000000   -0.000000
    -0.084661    4.954277   -0.000000
     0.011149   -0.075766    3.326118
 H   O  
   8   4
Direct
  0.931283  0.230841  0.866750
  0.725299 -0.005331  0.895419
  0.433375  0.178843  0.392193
  0.189472 -0.014141  0.375253
  0.451017  0.470796 -0.038775
  0.671930  0.620384  0.205547
 -0.048900  0.468842  0.440260
  0.171152  0.606558  0.700855
  0.767753  0.156314  0.747362
  0.264475  0.145400  0.249553
  0.509413  0.650388  0.052969
  0.011698  0.644679  0.544753
EA405
 1.0000000000000000
     2.880000   -0.000000   -0.000000
     0.000000    2.880000   -0.000000
     0.000000    0.000000    9.837000
 H   O  
   8   4
Direct
  0.718633  0.596788  0.406894
  0.338668  0.542311  0.300426
  0.272024  0.608564  0.602540
  0.640888  0.234544  0.609594
 -0.234520 -0.118032  0.831649
  0.140074  0.250247  0.823793
  0.155844 -0.249333  0.095705
 -0.215889  0.121328  0.094578
  0.670541  0.568143  0.310033
  0.603844  0.566478  0.605691
  0.097955 -0.081356  0.828046
  0.116097  0.082567  0.096626
EA53
 1.0000000000000000
     4.679000    0.000000    0.000000
    -1.707791    4.356202    0.000000
     0.101990   -2.419285    4.003711
 H   O  
   8   4
Direct
  0.587094  0.640976  0.585411
  0.295016  0.302297  0.443006
  1.084257  0.591877  0.002657
  0.777900  0.280463 -0.049921
  0.324789  1.144165  0.827471
  0.034516  0.793406  0.726829
  0.837988  1.101769  0.262644
  0.530480  0.786868  0.210214
  0.509524  0.405964  0.554972
  0.995530  0.414949  0.068249
  0.260775  0.909661  0.803850
  0.753882  0.910011  0.308947
EA132
 1.0000000000000000
     4.373000   -0.000000   -0.000000
    -0.092290    4.789111    0.000000
     0.000000   -0.075118    3.897276
 H   O  
   8   4
Direct
  0.869137  1.046390  0.767671
  0.875369  0.775760  0.964148
  0.346914  0.868893  0.470533
  0.349632  0.879499  0.082065
  0.718491  0.539880  0.642992
  0.469115  0.374641  0.441503
  0.226018  0.533517  1.165831
  0.032115  0.374680  0.895920
  0.977983  0.872703  0.777888
  0.486787  0.871598  0.277219
  0.607553  0.362715  0.634496
  0.106775  0.363427  1.130755
EA81
 1.0000000000000000
     4.701000   -0.000000   -0.000000
    -0.238342    5.232575    0.000000
     0.000000   -0.151270    3.317553
 H   O  
   8   4
Direct
  0.335908  0.605958  0.707050
  0.425666  0.654378  1.154826
  0.766543  0.150700  0.851208
  0.687587  0.080874  0.413688
  0.259781  0.154668  0.381504
  0.188184  0.129668 -0.069677
  0.823722  0.449642  0.208750
  0.942815  0.536581  0.632819
  0.497011  0.659441  0.878695
  0.835839  0.060648  0.610155
  0.345326  0.167546  0.114971
  0.978478  0.551160  0.344266
EA307
 1.0000000000000000
     5.406000   -0.000000   -0.000000
     0.000000    5.406000   -0.000000
     0.000000    0.000000    2.792000
 H   O  
   8   4
Direct
 -0.113133  0.591484  0.228327
  0.149341  0.712542  0.236762
 -0.014463 -0.014461 -0.128501
 -0.014982  0.272039 -0.168789
  0.326280 -0.025471  0.833782
  0.605458 -0.041364  0.709186
  0.521499  0.266649  0.335213
  0.512158  0.553258  0.336626
  0.023015  0.638514  0.444057
 -0.023866  0.136798  0.061649
  0.481374 -0.101265  0.937046
  0.523572  0.410018  0.546093
EA826
 1.0000000000000000
     2.867000   -0.000000   -0.000000
     0.000000    2.867000   -0.000000
     0.000000    0.000000    9.931000
 H   O  
   8   4
Direct
  0.228242  0.590489  0.497577
  0.598627  0.324394  0.574700
  0.432001  0.262369  0.739004
  0.670105 -0.094990  0.829145
 -0.275621  0.051642 -0.004893
  0.097578 -0.183412  0.079182
 -0.070803  0.740529  0.240710
  0.163362  0.388104  0.332225
  0.559498  0.540829  0.500466
  0.473524 -0.068766  0.749848
  0.056980  0.012716  0.000270
 -0.026812  0.410560  0.251668
EA631
 1.0000000000000000
     5.363000   -0.000000   -0.000000
     0.000000    3.753000   -0.000000
     0.000000    0.000000    4.054000
 H   O  
   8   4
Direct
  0.819621  0.333729  0.324765
  0.672860  0.155613  0.601045
  0.304720  0.295341 -0.066120
  0.044811  0.159783  0.042541
  0.097851  0.776119  0.689713
  0.350750  0.628589  0.559416
  0.591082  0.677260  0.978924
  0.878595  0.645661  1.005179
  0.656168  0.330190  0.427974
  0.170304  0.340026  0.091075
  0.248190  0.842865  0.570197
  0.746672  0.810420  0.946913
EA111
 1.0000000000000000
     4.427000   -0.000000    0.000000
    -0.990889    4.314681    0.000000
     0.093639   -1.155033    4.272641
 H   O  
   8   4
Direct
  0.728562  0.494949  0.436441
  1.055939  0.653602  0.569086
  0.230565  0.489954 -0.071439
  0.549386  0.662732  0.077276
  0.153411  0.072002  0.300473
  0.474773  0.184550  0.473523
  0.652614  0.071341  0.801524
  0.973660  0.186619  0.975254
  0.882632  0.483260  0.584976
  0.382644  0.481947  0.081072
  0.273447  0.044285  0.469531
  0.772297  0.047104  0.972764
EA239
 1.0000000000000000
     3.443000   -0.000000   -0.000000
     0.000000    3.443000   -0.000000
     0.000000    0.000000    6.885000
 H   O  
   8   4
Direct
 -0.169744  0.034666  0.069613
  0.097704 -0.029138 -0.107214
  0.307619  0.500860  0.805030
  0.606308  0.493871  0.637567
  0.303615  0.499021  0.305665
  0.613073  0.489048  0.143205
 -0.195951  0.000302  0.555420
  0.106063  0.002158  0.389448
  0.102893  0.008234  0.033676
  0.586920  0.502955  0.779152
  0.584368  0.501704  0.284284
  0.083495 -0.000245  0.531152
EA14
 1.0000000000000000
     2.819000   -0.000000    0.000000
     0.000000    7.595000   -0.000000
    -0.957296    0.000000    3.810594
 H   O  
   8   4
Direct
  0.797781  0.099978  0.977792
  0.672256  0.123585  0.580970
  0.005429  0.752922  0.036280
  0.327083  0.746471  0.408210
  0.484323  0.649054  0.926436
  0.199214  0.516530  0.664413
  0.781832  0.368731  0.476704
  0.821272  0.376621  0.098606
  0.621898  0.043806  0.760922
  0.211380  0.826464  0.214809
  0.527340  0.560853  0.758592
  0.922917  0.306196  0.309080
EA501
 1.0000000000000000
     4.422000   -0.000000   -0.000000
     0.000154    4.422000    0.000000
     0.020029   -0.038674    4.172773
 H   O  
   8   4
Direct
  0.893561  0.938074  0.729936
  0.896656  0.950357  1.095150
  0.159098  0.446155  0.059984
 -0.186078  0.450169  0.059044
  0.662259  0.442624  0.565116
  0.316340  0.455873  0.560870
  0.396764  0.931201  0.590759
  0.388733  0.996583  0.231910
  0.758971  0.948060  0.914171
 -0.014631  0.451269  0.203533
  0.486759  0.446392  0.707762
  0.257126  0.954140  0.413204
EA100
 1.0000000000000000
     4.680000   -0.000000   -0.000000
    -2.001881    4.230233    0.000000
     0.000000   -2.214725    4.122790
 H   O  
   8   4
Direct
  0.051001 -0.020857  0.476846
  0.047289  0.271288  0.786348
  0.504574 -0.055761 -0.083115
  0.523689  0.232010  0.251159
  1.080347  0.790452  0.908097
  0.739102  0.466781  0.803677
  0.564536  0.730800  0.451871
  0.207179  0.462430  0.269842
  0.161631  0.237126  0.610476
  0.641218  0.194230  0.077720
  0.862326  0.681506  0.780484
  0.384161  0.694944  0.312555
EA506
 1.0000000000000000
     3.806000   -0.000000   -0.000000
    -1.531021    5.634705   -0.000000
     0.000000    0.000000    3.806000
 H   O  
   8   4
Direct
  0.187858  0.697280  0.704589
  0.179001  0.699262  0.307340
  0.669984  0.196350  0.701161
  0.670057  0.195980  0.304212
  0.016009  0.002136  0.201045
  0.016665  0.001874 -0.195890
  0.536055  0.505076  0.201140
  0.537137  0.504725 -0.195704
  0.182729  0.594746  0.503733
  0.661571  0.091449  0.502916
  0.152310 -0.031827  0.002945
  0.672355  0.470811  0.003245
EA309
 1.0000000000000000
     3.928000    0.000000    0.000000
     1.963946    4.691515   -0.000000
    -1.963946    1.550498    4.427896
 H   O  
   8   4
Direct
  0.155251  0.761057  0.838112
  0.053095  1.074085  0.651544
  0.784426  0.127798  0.161696
  0.514823  0.399139 -0.136553
  0.748525  0.646044  0.641807
  0.503266  0.921964  0.349589
  0.202980  0.247499  0.398242
  0.105947  0.544203  0.188316
  0.032155  0.974142  0.817535
  0.493925  0.278762  0.017374
  0.463961  0.796198  0.486096
  0.055352  0.464994  0.346803
EA143
 1.0000000000000000
     4.548000    0.000000    0.000000
    -1.564008    4.270619   -0.000000
     0.055722   -1.740381    4.201461
 H   O  
   8   4
Direct
  0.836112  0.271713  0.218356
  0.649078  0.192580  0.478537
  0.344653  0.296361  0.753478
  0.037678  0.009563  0.738055
  0.561488  0.787708  0.464813
  0.274085  0.490679  0.473890
  1.015875  0.763082 -0.034882
  0.782371  0.616299  0.168898
  0.821254  0.155151  0.358999
  0.253101  0.133522  0.848389
  0.495709  0.619308  0.556191
  0.895015  0.553983 -0.013329
EA54
 1.0000000000000000
     4.869000   -0.000000   -0.000000
     0.000000    4.869000   -0.000000
     0.000000    0.000000    3.443000
 H   O  
   8   4
Direct
  0.466288  0.504562  0.221875
  0.351139  0.365496 -0.156119
  0.597235  0.030720  0.001994
  0.388355 -0.038035  0.327730
  0.073321  0.046974  0.032724
 -0.094647 -0.071832 -0.305705
 -0.024429  0.563459  0.004789
 -0.157264  0.357426  0.283750
  0.465050  0.517281 -0.065339
  0.578871  0.016740  0.284703
  0.078324  0.020160 -0.247546
 -0.034604  0.515206  0.280586
EA407
 1.0000000000000000
     5.680000   -0.000000   -0.000000
     0.000000    5.680000   -0.000000
     0.000000    0.000000    2.529000
 H   O  
   8   4
Direct
  0.902855  0.248216  0.387708
  0.693335  0.370707  0.120065
  0.343876  0.141546  0.874432
  0.190101  0.339652  0.647642
  0.824317  0.726289  0.891808
  0.634127  0.876819  0.627482
  0.311264  0.641791  0.341055
  0.134479  0.827304  0.140536
  0.856981  0.396554  0.222609
  0.351711  0.303794  0.749445
  0.794966  0.884820  0.762190
  0.297743  0.808396  0.252010
EA535
 1.0000000000000000
     5.363000   -0.000000   -0.000000
     0.000000    3.753000   -0.000000
     0.000000    0.000000    4.054000
 H   O  
   8   4
Direct
  0.686240  0.298170  0.546007
  0.704282  0.109547  0.204057
  0.761361  0.650769  0.968189
  0.940141  0.959752  0.899364
  0.474909  0.823664  0.630066
  0.249904  0.585471  0.687494
  0.071936  0.473804  0.001559
  0.061774  0.188955  0.271129
  0.644877  0.324454  0.313151
  0.819975  0.806100  0.793972
  0.300953  0.799439  0.571108
  0.172545  0.291272  0.104799
EA179
 1.0000000000000000
     4.733000    0.000000   -0.000000
     1.577649    4.462321    0.000000
     1.577649   -2.231124    3.864505
 H   O  
   8   4
Direct
  0.469615  0.109512 -0.096638
  0.482069 -0.147898  0.033165
  0.577386  0.540201  0.360908
  0.606822  0.311257  0.528543
  0.023918  0.706382 -0.112682
  0.090540  0.561761  0.121393
  0.061179  0.050079  0.423483
  0.109903  0.003422  0.710525
  0.340187  0.000883 -0.022347
  0.503507  0.381176  0.399859
 -0.075366  0.633129  0.045463
 -0.053076  0.038465  0.628233
EA56
 1.0000000000000000
     2.796000   -0.000000   -0.000000
     0.000000   10.436000   -0.000000
     0.000000    0.000000    2.796000
 H   O  
   8   4
Direct
  0.533549  0.211727  0.033748
  0.583338  0.064137 -0.018436
 -0.093329  0.711184 -0.050092
  0.049386  0.567745 -0.047916
  0.623503  0.877782 -0.116179
  0.231921  0.878050  0.251454
  0.145157  0.380746 -0.118542
 -0.246874  0.385013  0.245429
  0.629125  0.144668 -0.189479
  0.080613  0.646430 -0.230187
  0.571441  0.877132  0.221107
  0.091524  0.382858  0.218605
EA824
 1.0000000000000000
     5.407000   -0.000000   -0.000000
     0.000000    5.407000   -0.000000
     0.000000    0.000000    2.792000
 H   O  
   8   4
Direct
  0.513701 -0.060352  0.474426
  0.370833 -0.009604  0.929407
  0.008606  0.106815 -0.297827
  0.012441 -0.062746  0.135193
  0.492765  0.403518  0.225297
  0.503690  0.590599  0.630469
 -0.050772  0.580503  0.050585
  0.004722  0.429244  0.500346
  0.531646 -0.062313  0.813975
  0.019446  0.109447  0.040333
  0.482436  0.416419  0.564437
 -0.022622  0.597419  0.386464
EA666
 1.0000000000000000
     4.548000    0.000000   -0.000000
     1.411451    4.119931   -0.000000
     0.000000    0.000000    4.355000
 H   O  
   8   4
Direct
  1.103378  0.262375  0.915326
  0.867465  0.116484  0.767692
  1.121817  0.861624  0.333689
  0.864514  0.709506  0.292967
  0.614682  0.873872  0.824875
  0.380056  0.692620  0.778582
  0.640501  0.278018  0.361194
  0.375412  0.140738  0.289109
  1.004503  0.242280  0.720953
  1.026388  0.762167  0.179427
  0.529546  0.768458  0.666945
  0.509683  0.248012  0.193022
EA273
 1.0000000000000000
     5.573000   -0.000000   -0.000000
     0.000000    5.573000   -0.000000
     0.000000    0.000000    2.627000
 H   O  
   8   4
Direct
  0.533633  0.072869  0.482847
  0.391416 -0.098896  0.813894
  0.023257  0.493248  0.015359
 -0.125330  0.320328  0.350932
  0.051728  0.132286 -0.050709
 -0.119525 -0.052258  0.198237
  0.514622  0.452533  0.464250
  0.327888  0.267474  0.657159
  0.545583 -0.083000  0.641851
 -0.130145  0.479823  0.194439
  0.045174 -0.032009  0.078342
  0.347892  0.436816  0.572142
EA502
 1.0000000000000000
     2.819000   -0.000000    0.000000
     0.000000    7.595000   -0.000000
    -0.957296    0.000000    3.810594
 H   O  
   8   4
Direct
  0.530746  0.182352  0.636254
  0.711387  0.041473  0.919357
  0.423684  0.316932  0.156224
  0.741522  0.444267  0.421703
  0.241819  0.934820  0.045775
  0.534029  0.939203  0.423480
  0.305448  0.560013  0.503642
  0.418777  0.542736  0.902918
  0.827436  0.122130  0.764905
  0.755357  0.360805  0.237023
  0.436238  0.860453  0.226158
  0.274129  0.622406  0.713522
EA629
 1.0000000000000000
     5.406000   -0.000000   -0.000000
     0.000000    5.406000   -0.000000
     0.000000    0.000000    2.792000
 H   O  
   8   4
Direct
 -0.100580  0.466823  0.437245
  0.087817  0.497123  0.031670
  0.567751  0.082571  0.935736
  0.434084 -0.070495  0.549509
  0.108550  0.031215  0.314860
 -0.068635  0.000055 -0.102218
  0.575976  0.450554  0.702398
  0.443210  0.586575  0.292652
 -0.088231  0.511924  0.105231
  0.580299 -0.071980  0.754340
  0.102980  0.031781 -0.024598
  0.426657  0.444146  0.505882
EA242
 1.0000000000000000
     4.532000   -0.000000    0.000000
     1.414300    4.305668    0.000000
     1.414300    1.024083    4.182109
 H   O  
   8   4
Direct
  0.184646 -0.035376 -0.055121
 -0.112988 -0.028128  0.230536
  0.689671  0.476511  0.422921
  0.397373  0.476029  0.715003
  0.434604  0.223095  0.182948
  0.139472  0.224537  0.471629
  0.939370  0.725457  0.673729
  0.650716  0.722717  0.969040
 -0.043202  0.065238  0.002711
  0.462214  0.574968  0.487481
  0.207106  0.323158  0.244420
  0.711675  0.821849  0.741321
EA630
 1.0000000000000000
     2.881000   -0.000000   -0.000000
     0.000000    2.881000   -0.000000
     0.000000    0.000000    9.835000
 H   O  
   8   4
Direct
  0.000082  0.136876  0.929192
 -0.073580  0.004942  0.781348
  0.530820  0.601689  0.581985
  0.419601  0.494800  0.730273
  0.034111 -0.105866  0.081205
 -0.073639 -0.004290  0.230931
  0.524895  0.368594  0.431813
  0.418996  0.499530  0.284636
  0.043922 -0.121515  0.866153
  0.534339  0.350168  0.647746
  0.035279  0.143012  0.148206
  0.546854  0.626833  0.367894
EA859
 1.0000000000000000
     5.108000    0.000000   -0.000000
    -2.554000    4.423658   -0.000000
     0.000000    0.000000    3.612000
 H   O  
   8   4
Direct
  0.106928  0.512208  0.342965
 -0.059982  0.409885  0.721882
  0.568766  0.064401  0.510710
  0.458311  0.067077  0.116177
  0.498376  0.459578  0.162843
  0.511226  0.453644  0.583629
  0.114484 -0.072221 -0.221006
 -0.034759  0.071253  0.004169
  0.119044  0.573524  0.602058
  0.618978  0.061795  0.249720
  0.626504  0.571433  0.370672
  0.148786  0.118690 -0.126185
EA209
 1.0000000000000000
     4.805000   -0.000000   -0.000000
     0.000000    4.805000   -0.000000
     0.000000    0.000000    3.535000
 H   O  
   8   4
Direct
  0.220986  0.029951  0.911300
  0.429362  0.058632  0.584725
 -0.104445  0.302430  0.149831
 -0.061510  0.454128 -0.231066
  0.760614  0.002323  0.465245
  0.579906 -0.035751  0.105773
  0.126151  0.713936  0.649406
  0.082346  0.563269  0.268176
  0.304991  0.165325  0.744035
 -0.203508  0.369741 -0.074240
  0.721847 -0.127221  0.258836
  0.222503  0.655496  0.418837
EA375
 1.0000000000000000
     5.547000    0.000000   -0.000000
     1.136831    3.752580   -0.000000
     0.000000    0.000000    3.921000
 H   O  
   8   4
Direct
  0.947554  0.080532  0.814358
  0.975420  0.446020  0.728495
 -0.061870  0.529848  0.247883
 -0.107037  0.935397  0.266843
  0.427776  0.653489  0.766908
  0.547890  0.943744  0.649587
  0.555758  0.045436  0.232461
  0.387809  0.436422  0.266203
  1.075085  0.200361  0.765271
  0.026647  0.712475  0.253158
  0.577522  0.735877  0.794437
  0.561003  0.287908  0.283747
EA539
 1.0000000000000000
     4.685000    0.000000    0.000000
    -0.909988    4.288517   -0.000000
    -1.866565    1.401370    4.062182
 H   O  
   8   4
Direct
  0.575742  0.152107  0.659638
  0.786416 -0.102960  0.704816
  0.002719  1.220810  0.142002
  0.167294  0.911795  0.382781
  0.235146  0.720384  0.082702
  0.465577  0.445015  0.277043
  0.843208  0.530978  0.593647
  1.068025  0.307383  0.625447
  0.634323 -0.075381  0.784736
  0.015883  1.054206  0.351049
  0.403388  0.637001  0.292425
  1.051992  0.457443  0.723440
EA1
 1.0000000000000000
     2.796000   -0.000000   -0.000000
     0.000000   10.436000   -0.000000
     0.000000    0.000000    2.796000
 H   O  
   8   4
Direct
  0.547934  0.143782  0.267099
  0.504438  0.041829 -0.118856
  0.018102  0.346086 -0.234928
  0.001268  0.451675  0.137783
 -0.281333  0.635062  0.184727
  0.136229  0.634757 -0.153071
  0.238024  0.855976 -0.176038
  0.650165  0.856950  0.168161
  0.488608  0.133363 -0.067760
 -0.005182  0.359522  0.101891
  0.058265  0.638213  0.179906
  0.577743  0.854897 -0.166194
EA190
 1.0000000000000000
     4.544000    0.000000    0.000000
     1.249141    4.368934   -0.000000
    -1.203508   -0.907633    4.110311
 H   O  
   8   4
Direct
  0.078061  0.497071  0.862295
  0.382279  0.607391  1.035663
  0.571792  0.119453  0.978584
  0.874625 -0.036289  0.853558
  0.539979  0.437221  0.401683
  0.864057  0.453804  0.378516
  0.085083  0.109862  0.332104
  0.429882 -0.024755  0.325720
  0.224176  0.606584  0.836563
  0.706515  0.147093  0.854245
  0.677311  0.580605  0.452526
  0.260269  0.147092  0.269587
EA206
 1.0000000000000000
     4.528000   -0.000000   -0.000000
     1.150621    4.379367    0.000000
    -1.104627   -0.851891    4.117097
 H   O  
   8   4
Direct
  0.137780  0.112354  0.351598
 -0.038769  0.189852  0.624429
  0.652384  0.100359  0.932534
  0.414215  0.226321  1.157560
  0.499191  0.866364  0.551670
  0.716604  0.944744  0.376954
  0.238439  0.669625  0.824942
  0.004532  0.712285  1.044861
 -0.021520  0.271993  0.444975
  0.460939  0.249438  0.958974
  0.584163  0.798864  0.354182
  0.047797  0.804929  0.883154
EA276
 1.0000000000000000
     3.587000    0.000000   -0.000000
    -1.449364    6.341480   -0.000000
     0.000000    0.000000    3.587000
 H   O  
   8   4
Direct
  0.551477 -0.026041  0.689383
  0.471941 -0.016492  0.264190
  0.131179  0.541663  0.667237
  0.056810  0.392373  0.333843
  0.538319  0.311007  1.117859
  0.362133  0.282260  0.721994
  0.574660  0.658048  0.272222
  0.785001  0.797329 -0.046445
  0.348675 -0.065147  0.501591
 -0.071906  0.465567  0.508093
  0.308565  0.242405  0.982334
  0.573968  0.677046  0.002023
EA371
 1.0000000000000000
     5.160000   -0.000000   -0.000000
     0.000000    5.160000   -0.000000
     0.000000    0.000000    3.066000
 H   O  
   8   4
Direct
 -0.053518 -0.024730  0.236972
  0.089546 -0.012837 -0.196442
  0.549488  0.434478  0.262244
  0.484843  0.601223  0.659104
  0.001166  0.506455 -0.009568
 -0.041570  0.578646  0.473062
  0.593467 -0.116458  0.670531
  0.409254  0.075959  0.880522
 -0.078529  0.010527 -0.069529
  0.579775  0.447794  0.575805
  0.091362  0.522335  0.268114
  0.434697 -0.021927  0.610279
EA597
 1.0000000000000000
     2.796000   -0.000000   -0.000000
     0.000000   10.436000   -0.000000
     0.000000    0.000000    2.796000
 H   O  
   8   4
Direct
  0.625688  0.116465  0.262171
  0.252176  0.115410 -0.123685
  0.094074  0.611594 -0.162821
 -0.296907  0.605124  0.204323
  0.146957  0.357409  0.176814
 -0.238371  0.361551 -0.196587
  0.597825  0.869643 -0.214524
  0.398562  0.777501  0.154461
  0.589535  0.117867 -0.076355
  0.041516  0.609835  0.174238
  0.099990  0.358950 -0.160852
  0.569995  0.858009  0.122502
EA561
 1.0000000000000000
     4.516000    0.000000   -0.000000
     0.008040    4.515993    0.000000
     1.290764   -1.313117    4.001709
 H   O  
   8   4
Direct
  0.729589  0.098472  0.735300
  0.516848  0.410999  0.916141
  0.972868  0.326799  0.229460
  0.770940  0.640145  0.443364
  0.198575  0.588685  0.943834
  0.094269  0.928190  1.175296
  0.470698 -0.158473  0.229553
  0.265021  0.152273  0.447875
  0.646605  0.260279  0.952272
  0.935010  0.495562  0.438852
  0.100655  0.787257  0.957644
  0.411277 -0.004828  0.451987
EA240
 1.0000000000000000
     3.008000   -0.000000   -0.000000
     0.000000    5.209000   -0.000000
     0.000000    0.000000    5.209000
 H   O  
   8   4
Direct
  0.345413  0.601335  0.464582
  0.595600  0.355511  0.493060
  0.301459  0.397168  0.048670
  0.596749  0.631766  0.005748
 -0.193172  0.004385  0.090878
  0.164426  0.071461 -0.110772
 -0.213417  0.020584  0.429468
  0.156463 -0.080910  0.604891
  0.635379  0.539668  0.512321
  0.610034  0.444813  0.020382
  0.084665 -0.059642  0.014204
  0.088857  0.058567  0.486910
EA13
 1.0000000000000000
     3.864000   -0.000000   -0.000000
     0.000000    3.864000   -0.000000
     0.000000    0.000000    5.465000
 H   O  
   8   4
Direct
  0.456964  0.201929  0.524351
  0.530327 -0.158077  0.406932
 -0.283499  0.747175  0.123127
 -0.404139  0.520243 -0.089628
  0.023180  0.285943  0.586314
  0.052914  0.102317  0.835083
  0.207857  0.020922  0.137298
 -0.110939  0.265572  0.150079
  0.527369 -0.039830  0.563809
 -0.480935  0.615085  0.065604
  0.033000  0.333451  0.760196
  0.036406  0.118209  0.247775
EA227
 1.0000000000000000
     4.436000    0.000000    0.000000
    -0.000929    4.436000    0.000000
     0.017882   -0.031561    4.147841
 H   O  
   8   4
Direct
  0.123265  0.143370  0.213311
  0.111832  0.272427 -0.135727
  0.615239  0.174793  0.735633
  0.608367  0.280446  0.382167
  0.452178  0.874082  0.469039
  0.330455  0.670258  0.202321
  0.919612  0.817575  1.006944
  0.828627  0.773676  0.654922
  0.248841  0.236365  0.043589
  0.742187  0.260570  0.566473
  0.517306  0.756443  0.282721
  1.003235  0.768839  0.794938
EA178
 1.0000000000000000
     5.672000   -0.000000   -0.000000
     0.000000    5.672000   -0.000000
     0.000000    0.000000    2.537000
 H   O  
   8   4
Direct
  0.227128 -0.029245  0.962897
  0.430575 -0.012560  0.564244
  0.232697  0.239082  0.172556
  0.032988  0.370303 -0.121755
 -0.017443  0.748102  0.621050
 -0.204369  0.577952  0.387615
  0.827956  0.260239  0.420837
  0.722631  0.071856  0.047390
  0.330147 -0.127156  0.743797
  0.192012  0.391288  0.017781
 -0.183400  0.737510  0.521126
  0.685451  0.221074  0.220758
EA150
 1.0000000000000000
     5.446000   -0.000000   -0.000000
     0.000000    5.446000   -0.000000
     0.000000    0.000000    2.752000
 H   O  
   8   4
Direct
  0.349886  0.774048  0.599472
  0.123019  0.804107  0.911441
  0.844068  0.788124  0.055038
  0.630164  0.796947  0.412615
  0.354886  0.275399  0.043726
  0.143868  0.303505  0.405769
  0.861764  0.278416  0.566637
  0.642265  0.311671  0.907345
  0.236034  0.679226  0.794332
  0.751583  0.684835  0.278510
  0.250550  0.180201  0.260213
  0.761488  0.189695  0.800401
EA44
 1.0000000000000000
     4.339000    0.000000   -0.000000
     0.136518    4.336852    0.000000
     0.043241   -0.137947    4.336591
 H   O  
   8   4
Direct
  0.628205  0.418678  0.992048
  0.289306  0.475672  0.879688
  1.117381  0.418080  0.462825
  0.780537  0.487663  0.366808
  0.868631  0.913679  0.205039
  0.526440  0.987796  0.126277
  0.380626  0.916640  0.716684
  0.042196  0.998467  0.623555
  0.423183  0.503107  1.057851
  0.916989  0.489929  0.545117
  0.673321  0.992328  0.295496
  0.182859  0.997039  0.798989
EA15
 1.0000000000000000
     4.035000    0.000000   -0.000000
    -2.017500    3.494413   -0.000000
     0.000000    0.000000    5.787000
 H   O  
   8   4
Direct
  0.116957  0.027861  0.879360
  0.001283 -0.188581  0.648843
  0.118049  0.020578  0.379146
  0.004055 -0.186818  0.145814
  0.904602  0.263977  0.511605
  0.786546  0.357702  0.279773
  0.902812  0.263540  1.013438
  0.787762  0.355150  0.779922
  0.140289  0.063797  0.714541
  0.140064  0.063178  0.214843
  0.765838  0.376380  0.444356
  0.765474  0.375897  0.944174
EA18
 1.0000000000000000
     4.044000    0.000000   -0.000000
    -2.022000    3.502207   -0.000000
     0.000000    0.000000    5.761000
 H   O  
   8   4
Direct
  0.321960  0.583306  0.795290
  0.215541  0.671172  0.556905
  0.560958  0.222919  0.379622
  0.541523  0.317014  0.125479
 -0.217817 -0.189798  0.629449
 -0.061668  0.086749  0.424466
 -0.203659 -0.154079  0.128611
 -0.085986  0.059510 -0.103402
  0.108551  0.502565  0.690852
  0.435997  0.105694  0.233172
 -0.218665 -0.183739  0.462508
 -0.193824 -0.191810 -0.035379
EA0
 1.0000000000000000
     2.944000   -0.000000   -0.000000
     0.000000    5.625000   -0.000000
     0.000000    0.000000    4.928000
 H   O  
   8   4
Direct
  0.624607  0.694042  0.405925
  0.543014  0.920759  0.232717
  0.353908  0.200581  0.115554
  0.449104  0.432144  0.273384
  0.517214  0.276150  0.605978
  0.312012  0.036771  0.694948
  0.479959  0.769635  0.891965
  0.684442  0.533560  0.799686
  0.780661  0.833709  0.328676
  0.211339  0.350641  0.170514
  0.232438  0.202690  0.663218
  0.766118  0.698883  0.833312
EA133
 1.0000000000000000
     4.368000   -0.000000    0.000000
    -0.510299    4.338089    0.000000
     0.126001   -0.714484    4.307326
 H   O  
   8   4
Direct
  0.882326  0.402178  0.025784
  1.116975  0.643508  0.225730
  0.322167  0.484856  0.528664
  0.591022  0.663591  0.735410
  0.557408 -0.099463  0.257704
  0.853428  0.085479  0.413452
  0.064263 -0.048573  0.778365
  0.367196  0.119474  0.934414
  1.044394  0.572730  0.012700
  0.543640  0.552379  0.525945
  0.735025  0.042480  0.220851
  0.262328  0.061859  0.732780
EA729
 1.0000000000000000
     4.217000   -0.000000   -0.000000
     0.000000    3.909000   -0.000000
     0.000000    0.000000    4.951000
 H   O  
   8   4
Direct
  0.851841  0.529715  0.162939
  0.511238  0.600452  0.263982
  0.534386  0.485874  0.611646
  0.219056  0.455015  0.754104
  0.182416  0.119153 -0.041744
 -0.178032  0.105039 -0.092711
  0.242702  0.115931  0.551038
 -0.107153  0.031122  0.492178
  0.672841  0.421893  0.254086
  0.443873  0.495297  0.786466
  0.002212 -0.035501 -0.035821
  0.108744 -0.059563  0.469018
EA796
 1.0000000000000000
     6.417000   -0.000000   -0.000000
     0.000000    3.673000   -0.000000
     0.000000    0.000000    3.462000
 H   O  
   8   4
Direct
  0.859291 -0.017109  0.435935
  0.695826  0.032778  0.121136
  0.702767  0.480937  0.932434
  0.565368  0.687030  0.641571
  0.192337 -0.067755  0.946948
  0.105387  0.170197  0.615669
  0.357246  0.404689  0.452110
  0.216127  0.514818  0.112809
  0.845904  0.004273  0.157257
  0.683210  0.518909  0.656654
  0.174553 -0.062877  0.666788
  0.357069  0.431112  0.171617
EA828
 1.0000000000000000
     6.022000   -0.000000   -0.000000
     0.000000    5.247000   -0.000000
     0.000000    0.000000    2.583000
 H   O  
   8   4
Direct
  0.374174  0.662560  0.411229
  0.612001  0.617357  0.617417
  0.378462  0.159868  0.480875
  0.621213  0.120058  0.657734
 -0.149050  0.402996  0.047358
  0.074544  0.328315  0.292569
  0.881667  0.902079  0.788795
  1.119883  0.852441  0.995781
  0.524733  0.730641  0.396830
  0.528637  0.226330  0.432606
  0.005742  0.457390  0.072601
  1.034634  0.964836  0.768259
EA79
 1.0000000000000000
     4.459000   -0.000000   -0.000000
    -1.231760    4.285493   -0.000000
     0.000000   -1.281630    4.270844
 H   O  
   8   4
Direct
  0.841859  0.555292  0.818505
  0.906748  0.911003  0.799669
  0.367218  0.052184  0.893819
  0.406049  0.399096  0.876740
  0.314765  0.578416  0.341590
  0.395651  0.928134  0.317329
  0.876545  0.023884  0.367662
  0.918496  0.378978  0.373316
  0.940565  0.781700  0.934212
  0.486925  0.275646  0.991659
  0.432470  0.799779  0.450400
  0.988507  0.245110  0.483882
EA142
 1.0000000000000000
     4.454000    0.000000   -0.000000
    -1.333363    3.967964    0.000000
     0.000000   -1.647565    4.617893
 H   O  
   8   4
Direct
  0.126787 -0.114703  0.668747
  0.059182  0.126818  0.518077
  0.921691  0.363284  0.852808
  0.780962  0.616515  0.774437
  0.670601 -0.102237  0.137265
  0.553846  0.138387  0.019220
  0.414938  0.414470  0.432190
  0.287134  0.613302  0.273134
  0.215659  0.119628  0.654285
  0.930140  0.610297  0.917081
  0.702495  0.146999  0.170113
  0.465606  0.643309  0.406039
EA88
 1.0000000000000000
     3.954000   -0.000000   -0.000000
     0.000000    3.954000   -0.000000
     0.000000    0.000000    5.221000
 H   O  
   8   4
Direct
  0.051079  0.635186  0.152054
  0.039226  0.325871  0.322026
  0.547951  0.158921  0.693843
  0.551459 -0.184041  0.825272
  1.052371  0.652848  0.656154
  1.060705  0.337787  0.825855
  0.546886  0.154125  0.167245
  0.550813 -0.171715  0.321190
 -0.102138  0.503484  0.255835
  0.400182 -0.007023  0.771719
  0.907331  0.500295  0.752109
  0.402882  0.009405  0.271340
EA794
 1.0000000000000000
     4.208000   -0.000000   -0.000000
     0.000000    4.208000   -0.000000
     0.000000    0.000000    4.609000
 H   O  
   8   4
Direct
  0.016174 -0.146000 -0.073206
  0.112672  0.213248 -0.084183
  0.581278  0.244137  0.182566
  0.537059  0.560941  0.323480
  0.480093  0.381512  0.773900
  0.512108  0.737843  0.711646
  1.017470  0.726935  0.473666
  0.968967  1.089824  0.474049
 -0.064432  0.072151 -0.045612
  0.423426  0.364340  0.286511
  0.364563  0.583006  0.786599
  0.853953  0.888120  0.451031
EA601
 1.0000000000000000
     4.716000    0.000000   -0.000000
    -2.358000    4.084176   -0.000000
     0.000000    0.000000    4.237000
 H   O  
   8   4
Direct
  0.435177  0.856081  0.802281
  0.169499  0.505085  0.754288
  0.839173  0.264381  0.262152
  0.573021 -0.090350  0.298140
  0.482709  0.552360  0.140721
  0.233159  0.299636  0.369901
  0.554395  0.538216  0.666257
  0.529161  0.202923  0.654533
  0.273792  0.718907  0.650293
  0.734745  0.055804  0.149581
  0.341512  0.317829  0.168391
  0.683989  0.433734  0.672368
EA210
 1.0000000000000000
     4.102000   -0.000000   -0.000000
     0.000000    4.102000   -0.000000
     0.000000    0.000000    4.851000
 H   O  
   8   4
Direct
  0.169497  0.045792  0.190245
 -0.171114 -0.074557  0.266350
  0.188071 -0.041150  0.725942
 -0.175609 -0.076066  0.767297
  0.678112  0.475973  0.231700
  0.317733  0.436950  0.265439
  0.691858  0.455565  0.715123
  0.324619  0.435634  0.773075
 -0.032829  0.116072  0.273170
 -0.004193  0.084387  0.769411
  0.481066  0.606451  0.243993
  0.499852  0.588984  0.743038
EA699
 1.0000000000000000
     3.770000   -0.000000   -0.000000
     0.000000    3.770000   -0.000000
     0.000000    0.000000    5.741000
 H   O  
   8   4
Direct
 -0.189396  0.487171  0.507272
  0.115860  0.571021  0.333770
  0.311678 -0.020640  0.510216
  0.628231  0.060846  0.345408
  0.824187  0.469194  1.022494
  1.123660  0.564319  0.845644
  0.312567 -0.048917  1.037654
  0.606108  0.044954  0.856643
  0.069361  0.485004  0.490857
  0.571161 -0.009689  0.504662
  1.074651  0.438920  0.991170
  0.572168 -0.045166  1.014208
EA160
 1.0000000000000000
     4.565000    0.000000   -0.000000
    -1.494954    4.313274    0.000000
     0.000000   -1.531598    4.145090
 H   O  
   8   4
Direct
  0.554140  0.550947  0.774511
  0.588017  0.271103  0.886801
  0.038633  0.508131  0.261370
  0.080258  0.251853  0.392354
  0.537436  1.022229  0.222051
  0.556927  0.796244  0.402703
  0.055415  1.030660  0.718366
  0.046345  0.790673  0.899608
  0.466697  0.417499  0.910817
 -0.032336  0.405378  0.422134
  0.435334  0.930898  0.380255
 -0.056317  0.940939  0.873434
EA340
 1.0000000000000000
     4.733000    0.000000   -0.000000
     1.577649    4.462321    0.000000
     1.577649   -2.231124    3.864505
 H   O  
   8   4
Direct
  0.111584  0.318924  0.339084
 -0.179689  0.689162  0.649483
  0.623318 -0.170796  0.339480
  0.278668  0.159718  0.632703
  0.646238  0.298513 -0.158935
  0.356524  0.647298  0.146145
  0.113968 -0.186872 -0.170840
 -0.198965  0.160428  0.151246
  0.067187  0.550225  0.472642
  0.525199  0.041366  0.548783
  0.602530  0.528140 -0.023762
  0.049770  0.000893  0.042989
EA2
 1.0000000000000000
     2.732000   -0.000000   -0.000000
     0.000000    2.732000   -0.000000
     0.000000    0.000000   10.930000
 H   O  
   8   4
Direct
  0.233631  0.171315  0.732875
 -0.166515 -0.234878  0.742071
  0.210677 -0.143508  0.284815
 -0.195428  0.090844  0.207465
 -0.199581 -0.212334  0.005042
  0.160043  0.201297 -0.024110
 -0.201568  0.172068  0.520510
  0.176091 -0.168318  0.458177
 -0.061233  0.073479  0.778631
 -0.023732  0.125321  0.285131
  0.106425 -0.069988  0.032310
  0.003882 -0.114162  0.535212
EA568
 1.0000000000000000
     3.911000   -0.000000   -0.000000
     0.000000    3.911000   -0.000000
     0.000000    0.000000    5.336000
 H   O  
   8   4
Direct
  1.102817  0.461041  0.556744
  0.874703  0.604034  0.351159
  0.675487  1.003136  0.549802
  0.419635  1.104365  0.344607
  0.151865  0.467566  0.987263
 -0.123302  0.622906  0.815518
  0.642971 -0.017051  1.026148
  0.388410  0.111689  0.826817
  1.019105  0.408999  0.389000
  0.501622  0.907583  0.438870
 -0.065345  0.414941  0.905623
  0.434584 -0.082297  0.937440
EA600
 1.0000000000000000
     4.193000   -0.000000   -0.000000
     0.000000    4.193000   -0.000000
     0.000000    0.000000    4.643000
 H   O  
   8   4
Direct
  0.625248  0.354252  0.578133
  0.272387  0.358965  0.463974
  0.701852  0.465148  0.109860
  0.358808  0.482399  0.001088
  0.107967 -0.031138  0.302233
 -0.249054 -0.057514  0.251636
  0.245336 -0.074548  0.848185
 -0.117292 -0.041211  0.825625
  0.441520  0.494963  0.537178
  0.545804  0.616127  0.035081
 -0.091208  0.088135  0.325719
  0.079694  0.084552  0.826745
EA860
 1.0000000000000000
     3.892000   -0.000000   -0.000000
     0.000000    3.892000   -0.000000
     0.000000    0.000000    5.388000
 H   O  
   8   4
Direct
  0.354645  0.458799  0.134298
  0.707150  0.525075  0.260717
  0.350888  0.445156  0.630028
  0.707349  0.509963  0.745825
 -0.149129 -0.074220  0.197592
  0.213846  0.034458  0.279370
 -0.127381 -0.075261  0.667022
  0.189869  0.068604  0.798876
  0.459699  0.554449  0.282434
  0.462382  0.511492  0.782690
 -0.028224  0.063009  0.320382
 -0.044169 -0.006739  0.829187
EA892
 1.0000000000000000
     4.156000   -0.000000   -0.000000
    -1.157606    3.991527    0.000000
    -1.561775   -0.610794    4.917947
 H   O  
   8   4
Direct
  1.030678 -0.017084  0.369057
  1.062009  0.168233  0.650943
  0.580435  0.458680  0.344876
  0.553346  0.594285  0.619793
  0.783550  0.196473 -0.165784
  0.763890  0.326716  0.110860
  0.222128  0.743380 -0.141378
  0.268526  0.926134  0.140345
  0.911980 -0.017030  0.507271
  0.488836  0.390149  0.493193
  0.730651  0.121353 -0.004345
  0.159885  0.709681  0.025480
EA762
 1.0000000000000000
     4.733000    0.000000   -0.000000
     1.577649    4.462321    0.000000
     1.577649   -2.231124    3.864505
 H   O  
   8   4
Direct
  0.100284  0.422168  0.307184
 -0.012605  0.497467  0.684188
  0.601012 -0.085219  0.284976
  0.501873 -0.005763  0.658690
  0.605673  0.404773  0.796392
  0.483180  0.513652  1.180819
  0.098776 -0.085723 -0.210837
 -0.016900 -0.003059  0.166802
 -0.086108  0.584818  0.547171
  0.419151  0.077449  0.524397
  0.407586  0.571143  1.029624
 -0.078931  0.092266  0.029711
EA87
 1.0000000000000000
     4.134000   -0.000000   -0.000000
     0.000000    4.134000   -0.000000
     0.000000    0.000000    4.774000
 H   O  
   8   4
Direct
  0.194401  0.020748  0.741107
 -0.170905  0.036809  0.745928
  0.118819  0.298284  0.143743
 -0.025505 -0.009916  0.283613
 -0.191287  0.562731  0.466325
 -0.258590  0.423317  0.758266
  0.495444 -0.203564 -0.084742
  0.593359 -0.183959  0.226340
  0.006374 -0.104627  0.794550
  0.151890  0.145645  0.297665
 -0.348210  0.430247  0.569595
  0.505031 -0.332054  0.086322
EA507
 1.0000000000000000
     4.458000   -0.000000   -0.000000
    -2.229000    3.860741   -0.000000
     0.000000    0.000000    4.742000
 H   O  
   8   4
Direct
  0.087282  0.159689 -0.086967
  0.034932 -0.132893  0.109774
  0.322718  0.722595  0.046339
  0.401538  0.513300  0.261704
  0.825341  0.502625  0.729733
  0.627850  0.269456  0.982459
 -0.057941  0.213849  0.465655
 -0.079449 -0.137089  0.504427
 -0.077079 -0.009920  0.043255
  0.260636  0.623457  0.236071
  0.592438  0.367303  0.809728
 -0.204803 -0.013826  0.544737
EA621
 1.0000000000000000
     4.563000    0.000000    0.000000
     1.508588    4.306406    0.000000
     0.316748   -1.699417    4.151465
 H   O  
   8   4
Direct
  0.476454  0.781579 -0.015133
  0.370450  0.840834  0.346581
  1.041447  0.781963  0.553479
  0.785886  0.870311  0.860831
  1.055663  0.410848  0.179326
  0.834239  0.217657  0.118132
  0.537797  0.435577  0.670165
  0.322937  0.229950  0.623945
  0.528325  0.688329  0.154755
  0.956743  0.687672  0.688495
  1.053492  0.185450  0.125885
  0.540149  0.207409  0.619221
EA57
 1.0000000000000000
     3.868000   -0.000000   -0.000000
     0.000000    3.868000   -0.000000
     0.000000    0.000000    5.454000
 H   O  
   8   4
Direct
  0.185685 -0.003691  0.221942
 -0.180854  0.072666  0.273581
  0.693717  0.488635  0.181055
  0.321102  0.577588  0.247201
  0.695413  0.502332  0.715992
  0.325073  0.575467  0.794109
  0.199114  0.010305  0.685084
 -0.174509  0.075741  0.745511
 -0.012652 -0.097385  0.304647
  0.499969  0.418491  0.285785
  0.502201  0.408104  0.808308
  0.007466 -0.079526  0.782003
EA42
 1.0000000000000000
     4.447000    0.000000   -0.000000
     1.038509    4.324038   -0.000000
     1.038509    0.818621    4.245841
 H   O  
   8   4
Direct
  0.283540  0.678192  0.642989
  0.543388  0.377266  0.642799
 -0.046674  0.390832  0.428562
  0.216295  0.090728  0.460774
  0.510552  0.869513  0.887817
  0.783603  0.582510  0.898814
  0.767268  1.151359  0.137963
  1.062577  0.878342  0.125228
  0.321928  0.451722  0.718863
  0.004704  0.183354  0.561912
  0.575336  0.661571  1.014282
  0.844388  0.932220  0.229632
EA118
 1.0000000000000000
     5.819000   -0.000000   -0.000000
     0.000000    5.819000   -0.000000
     0.000000    0.000000    2.410000
 H   O  
   8   4
Direct
 -0.024164  0.197200  0.216754
 -0.055153  0.413474 -0.132321
  0.141070  0.860355 -0.123849
  0.027805  0.650808  0.152156
  0.273905  0.098166  0.068010
  0.280008  0.356937 -0.097198
  0.765843 -0.094618 -0.054863
  0.742598 -0.356033  0.097215
 -0.142791  0.287391  0.030392
  0.175984  0.707749  0.025881
  0.376257  0.221254 -0.053244
  0.654395 -0.216372  0.027239
EA17
 1.0000000000000000
     6.567000   -0.000000   -0.000000
     0.000000    5.112000   -0.000000
     0.000000    0.000000    2.431000
 H   O  
   8   4
Direct
  0.113876  0.907261  0.510860
  0.295035  0.986860  0.159371
  0.255135  0.321608  0.414283
  0.389222  0.516909  0.096380
  0.714935  0.074639  0.908030
  0.899506  0.213488  0.637441
  0.643122  0.480191  0.900734
  0.695977  0.714132  0.539496
  0.234506  0.837024  0.341369
  0.393374  0.344641  0.267534
  0.861717  0.056960  0.842881
  0.758054  0.566071  0.728002
EA698
 1.0000000000000000
     5.024000   -0.000000   -0.000000
     0.000000    5.024000   -0.000000
     0.000000    0.000000    3.234000
 H   O  
   8   4
Direct
  0.213766  0.367431  0.167724
  0.293205  0.162694 -0.148581
  0.218660  0.802707  0.216383
  0.374666  0.641456 -0.107621
  0.695983  0.323011  0.244118
  0.801332  0.157684 -0.111990
  0.711598  0.801079  0.176918
  0.867357  0.626877 -0.134349
  0.167277  0.304664 -0.108208
  0.253294  0.790552 -0.080079
  0.667571  0.289466 -0.047156
  0.750997  0.779921 -0.117226
EA598
 1.0000000000000000
     5.147000   -0.000000   -0.000000
     0.000000    2.397000   -0.000000
     0.000000    0.000000    6.614000
 H   O  
   8   4
Direct
  0.012509  0.039235 -0.104821
 -0.013807  0.053102  0.129303
  0.035699  0.549816  0.337690
  0.011207  0.536536  0.573279
  0.403047 -0.086500  0.109086
  0.537880  0.103503 -0.083268
  0.604858  0.378554  0.612126
  0.460663  0.615360  0.429695
  0.035894 -0.188724  0.015372
 -0.032555  0.330805  0.448776
  0.558394  0.103066  0.062865
  0.445776  0.575131  0.576009
EA5
 1.0000000000000000
     2.489000   -0.000000   -0.000000
     0.000000    2.489000   -0.000000
     0.000000    0.000000   13.172000
 H   O  
   8   4
Direct
  0.454119  0.074031  0.804964
  0.427174 -0.150934  0.692912
  0.050712  0.035441 -0.062196
  0.069529 -0.127816  0.052799
  0.539492  0.616668  0.447420
  0.583168  0.353348  0.555422
 -0.019817  0.626271  0.297325
 -0.085359  0.342695  0.191625
  0.628330  0.084129  0.738506
 -0.140411  0.071456  0.002538
  0.359572  0.587433  0.513379
  0.160155  0.560593  0.232343
EA373
 1.0000000000000000
     4.516000    0.000000   -0.000000
    -2.258000    3.910971   -0.000000
     0.000000    0.000000    4.621000
 H   O  
   8   4
Direct
  0.488153  0.824229  0.844710
  0.269164  0.565042  1.075838
  0.742352  0.363281 -0.032669
  0.501866  0.301823  0.226006
  0.173551  0.112418 -0.100805
 -0.154912 -0.075377  0.068986
  0.167742  0.124575  0.450771
 -0.201231 -0.074988  0.567308
  0.347725  0.584669  0.875821
  0.680117  0.256430  0.159759
  0.029887 -0.102263 -0.003010
 -0.017542 -0.108310  0.497317
EA663
 1.0000000000000000
     5.147000   -0.000000   -0.000000
     0.000000    2.397000   -0.000000
     0.000000    0.000000    6.614000
 H   O  
   8   4
Direct
 -0.014172  0.015037  0.120050
 -0.026794  0.068418 -0.113639
  0.477226  0.038163 -0.128809
  0.464567  0.079072  0.107088
 -0.114307  0.301777  0.563551
  0.070706  0.686465  0.445025
  0.379637  0.303213  0.438537
  0.551905  0.710255  0.556612
  0.055820 -0.136699 -0.003777
  0.554286 -0.108814 -0.004523
  0.045977  0.512794  0.578535
  0.538880  0.519309  0.425502
EA695
 1.0000000000000000
    13.228000   -0.000000   -0.000000
     0.000000    2.575000   -0.000000
     0.000000    0.000000    2.396000
 H   O  
   8   4
Direct
  0.227231  0.284006 -0.089354
  0.308572 -0.128016  0.053658
 -0.031783  0.229040  0.630988
  0.058789 -0.118325  0.440933
  0.705368  0.203344 -0.119085
  0.799491 -0.132643  0.036332
  0.473149  0.220326  0.623075
  0.565257 -0.109820  0.438658
  0.239846 -0.011996  0.150091
 -0.013937 -0.060339  0.388644
  0.727542 -0.081340  0.119135
  0.492720 -0.067172  0.383992
EA471
 1.0000000000000000
     5.963000    0.000000   -0.000000
     2.981363    6.885237   -0.000000
     0.000000    0.000000    1.988000
 H   O  
   8   4
Direct
 -0.052673 -0.069481  0.365428
  0.079544  0.066010  0.514639
  0.227927  0.393445  0.554772
  0.337190  0.546936  0.495377
  0.736640  0.388865  0.434747
  0.838706  0.545280  0.530678
  0.477568 -0.098674  0.528249
  0.584176  0.056796  0.468723
 -0.083471  0.068076  0.445928
  0.181319  0.534376  0.524936
  0.684902  0.528727  0.507705
  0.429782  0.042471  0.505625
