 19 
core with attached ligands
C -3.48719000 0.72140000 -0.32203000
C -3.25968000 2.09567000 -0.30385000
C -1.99317000 2.59844000 0.00375000
C -0.92459000 1.74017000 0.29077000
C -2.44828000 -0.14271000 0.01941000
C -1.19757000 0.36760000 0.36923000
H -4.07612000 2.77759000 -0.51451000
H -1.89913000 3.67258000 0.07460000
H -2.62420000 -1.21266000 0.04256000
N 0.42311000 2.21887000 0.38282000
H -0.46027000 -0.33047000 0.74241000
C 0.79900000 3.65174000 0.32589000
C 1.54768000 1.32740000 0.74849000
H 1.51111000 0.40436000 0.15381000
H 1.51163000 1.07975000 1.82034000
H 2.51791000 1.79976000 0.53759000
H 1.77101000 3.75365000 -0.17797000
H 0.88810000 4.06059000 1.34397000
H 0.09919000 4.26686000 -0.25067000
