111

Au     -2.964209960000000     -1.315083640000000     -4.132400500000000
Au     -1.372162480000000      0.492805760000000     -5.437834940000000
Au     -0.276315560000000     -1.880773860000000     -4.672714170000000
Au     -3.310123920000000      1.351926600000000     -3.573654280000000
Au     -4.229268570000000     -2.236247980000000     -1.907742100000000
Au     -1.753354820000000     -3.449247460000000     -2.881307520000000
Au     -1.065166740000000      3.014803940000000     -4.525973690000000
Au     -2.166051000000000     -0.394924930000000     -1.450290930000000
Au     -4.822730650000000      0.498325840000000     -1.397899360000000
Au      1.106310430000000      1.111389500000000     -4.388116630000000
Au     -2.887984180000000      3.800495520000000     -2.503819370000000
Au      1.086122460000000     -3.460327040000000     -2.740218500000000
Au     -2.320730340000000     -3.282991590000000     -0.179235120000000
Au     -0.391191840000000     -5.085857530000000     -1.108221410000000
Au     -0.365130810000000     -1.289819180000000      0.545622470000000
Au      2.365832560000000     -1.349503940000000     -4.110615740000000
Au     -4.195092530000000      2.959513890000000     -0.332349840000000
Au     -4.029640910000000     -1.299640440000000      0.734131950000000
Au     -0.561766930000000      1.807984460000000     -2.078467380000000
Au     -0.235699350000000      4.618865800000000     -2.382770050000000
Au      0.508480830000000     -0.774904340000000     -2.097761330000000
Au      1.998767760000000      3.081095720000000     -2.566497800000000
Au     -5.207770220000000      1.080317670000000      1.339765260000000
Au      3.247895480000000      0.641270570000000     -2.417735450000000
Au     -1.249062110000000      1.351762350000000      0.564118280000000
Au      3.242822490000000     -2.077010540000000     -1.576304870000000
Au     -1.690865200000000      4.095873430000000      0.013698300000000
Au      1.510016990000000      0.943186760000000     -0.103857160000000
Au     -3.036230320000000      2.680035830000000      2.196064540000000
Au      1.128162090000000      3.944775500000000     -0.029206170000000
Au      3.714277940000000      2.671788770000000     -0.420468060000000
Au     -3.512292430000000     -0.014423550000000      3.175287460000000
Au      2.144824330000000     -4.292007310000000     -0.269215140000000
Au     -2.141113020000000     -2.372786970000000      2.465777060000000
Au      0.644112690000000      0.535216840000000      2.514128660000000
Au      4.557600860000000     -0.089989650000000     -0.109423330000000
Au     -0.110641800000000     -4.022086560000000      1.422592030000000
Au     -0.291925140000000      3.439849010000000      2.354831130000000
Au      4.395775390000000     -2.939306400000000      0.785591420000000
Au      2.461199280000000      2.990330950000000      2.178494040000000
Au      4.891686430000000      1.808032320000000      1.904918360000000
Au     -1.419814260000000      1.554563940000000      4.153831000000000
Au     -1.665281490000000     -1.130156500000000      4.867973530000000
Au      2.258829170000000     -1.336422930000000      1.368560550000000
Au      2.437236750000000     -3.978207810000000      2.482979050000000
Au      1.138192960000000      2.482332390000000      4.584241840000000
Au      0.344497150000000     -2.674537700000000      3.802905730000000
Au      4.898392920000000     -0.878881950000000      2.532575920000000
Au      3.280205710000000      0.851210820000000      3.988306960000000
Au      0.926661010000000     -0.274855980000000      5.170242490000000
Au      2.983712880000000     -1.907758380000000      4.247462780000000
H       2.144824330000000     -4.292007310000000     -0.269215140000000
C       2.705945544201591     -5.181618568937908     -0.572971507742048
C       2.426195192659994     -6.413122154455664      0.010672612993579
H       1.645187848971255     -6.492726022734364      0.773539051670315
C       3.139183330728760     -7.543529027215408     -0.375144645550885
H       2.919139441750879     -8.512592656889016      0.084193811980493
C       4.131877093995890     -7.442760734783146     -1.344594207730801
H       4.692896606439067     -8.332350163829460     -1.648128809361443
C       4.411599875585258     -6.211277735408093     -1.928068575385565
H       5.192830532520418     -6.131971955169091     -2.690758167477486
C       3.698629811590358     -5.080783611031235     -1.542296709386360
H       3.918646130616011     -4.111740567500330     -2.001465413836875
H       2.144824330000000     -4.292007310000000     -0.269215140000000
C       2.705945544201591     -5.181618568937908     -0.572971507742048
C       2.679456855116457     -6.324709787249255      0.219582979955822
H       2.097712131066859     -6.334749073568394      1.146808270147294
C       3.392480480188383     -7.455093450380190     -0.166236698412166
H       3.371740137190172     -8.354569408824107      0.457468591250919
C       4.131982896734232     -7.442710801399191     -1.344545000991361
H       4.693052424954812     -8.332272979598592     -1.648067019335129
C       4.158484334292156     -6.299615742116853     -2.136926796120244
H       4.740513005817927     -6.289829999232902     -3.063993689477004
C       3.445459996504836     -5.169151812678813     -1.751166756766169
H       3.466213087975836     -4.269672013263904     -2.374699353860267
H       2.144824330000000     -4.292007310000000     -0.269215140000000
C       2.705945544201591     -5.181618568937908     -0.572971507742048
C       4.095441273641699     -5.141633665971529     -0.629580918642280
H       4.627729178675157     -4.220862858664903     -0.370495688328013
C       4.808506920833972     -6.271913142579997     -1.015628101706672
H       5.901900821155726     -6.240437920113457     -1.060288364915289
C       4.132386594106982     -7.442290533911216     -1.345030098736625
H       4.693594270097414     -8.331674790543186     -1.648817999194521
C       2.742979427555488     -7.482142170115075     -1.288486994583924
H       2.210976632300708     -8.403016322318805     -1.547851567423317
C       2.029814200760850     -6.351867757258145     -0.902432178616201
H       0.936508863327709     -6.383209712962165     -0.857838222155116
H       2.144824330000000     -4.292007310000000     -0.269215140000000
C       2.705945544201591     -5.181618568937908     -0.572971507742048
C       4.039839314239309     -5.322172800580866     -0.203548013332420
H       4.528390569365667     -4.543440299470914      0.390731224761507
C       4.752933755206314     -6.452451388926459     -0.589544607863312
H       5.802611778684631     -6.563022347932359     -0.298949425433924
C       4.132407310153472     -7.442334503017108     -1.344863058206135
H       4.693637105609728     -8.331730722410931     -1.648575062611795
C       2.798628249999348     -7.301650695683659     -1.714293748659089
H       2.310427827631264     -8.080473196251379     -2.308770005719928
C       2.085436910556977     -6.171364811913684     -1.328320764766790
H       1.035873596962254     -6.060664277217295     -1.618923143239503
H       2.144824330000000     -4.292007310000000     -0.269215140000000
C       2.705945544201591     -5.181618568937908     -0.572971507742048
C       3.109663859953333     -6.108928502867821      0.382334520691499
H       2.866395656363081     -5.949192312562661      1.437597227617488
C       3.822732871350966     -7.239275176687389     -0.003509647295318
H       4.140526453953306     -7.968935295105478      0.748220889830102
C       4.132144729786889     -7.442612543736665     -1.344533818226139
H       4.693285742512378     -8.332125997282692     -1.648066484998654
C       3.728493401522578     -6.515257955919546     -2.299686488559525
H       3.972116373511183     -6.675181437787099     -3.354854004865252
C       3.015392352555579     -5.384847288781874     -1.913912166470134
H       2.697665757440669     -4.655142516476579     -2.665489345495392
