62

Au     -2.964209960000000     -1.315083640000000     -4.132400500000000
Au     -1.372162480000000      0.492805760000000     -5.437834940000000
Au     -0.276315560000000     -1.880773860000000     -4.672714170000000
Au     -3.310123920000000      1.351926600000000     -3.573654280000000
Au     -4.229268570000000     -2.236247980000000     -1.907742100000000
Au     -1.753354820000000     -3.449247460000000     -2.881307520000000
Au     -1.065166740000000      3.014803940000000     -4.525973690000000
Au     -2.166051000000000     -0.394924930000000     -1.450290930000000
Au     -4.822730650000000      0.498325840000000     -1.397899360000000
Au      1.106310430000000      1.111389500000000     -4.388116630000000
Au     -2.887984180000000      3.800495520000000     -2.503819370000000
Au      1.086122460000000     -3.460327040000000     -2.740218500000000
Au     -2.320730340000000     -3.282991590000000     -0.179235120000000
Au     -0.391191840000000     -5.085857530000000     -1.108221410000000
Au     -0.365130810000000     -1.289819180000000      0.545622470000000
Au      2.365832560000000     -1.349503940000000     -4.110615740000000
Au     -4.195092530000000      2.959513890000000     -0.332349840000000
Au     -4.029640910000000     -1.299640440000000      0.734131950000000
Au     -0.561766930000000      1.807984460000000     -2.078467380000000
Au     -0.235699350000000      4.618865800000000     -2.382770050000000
Au      0.508480830000000     -0.774904340000000     -2.097761330000000
Au      1.998767760000000      3.081095720000000     -2.566497800000000
Au     -5.207770220000000      1.080317670000000      1.339765260000000
Au      3.247895480000000      0.641270570000000     -2.417735450000000
Au     -1.249062110000000      1.351762350000000      0.564118280000000
Au      3.242822490000000     -2.077010540000000     -1.576304870000000
Au     -1.690865200000000      4.095873430000000      0.013698300000000
Au      1.510016990000000      0.943186760000000     -0.103857160000000
Au     -3.036230320000000      2.680035830000000      2.196064540000000
Au      1.128162090000000      3.944775500000000     -0.029206170000000
Au      3.714277940000000      2.671788770000000     -0.420468060000000
Au     -3.512292430000000     -0.014423550000000      3.175287460000000
Au      2.144824330000000     -4.292007310000000     -0.269215140000000
Au     -2.141113020000000     -2.372786970000000      2.465777060000000
Au      0.644112690000000      0.535216840000000      2.514128660000000
Au      4.557600860000000     -0.089989650000000     -0.109423330000000
Au     -0.110641800000000     -4.022086560000000      1.422592030000000
Au     -0.291925140000000      3.439849010000000      2.354831130000000
Au      4.395775390000000     -2.939306400000000      0.785591420000000
Au      2.461199280000000      2.990330950000000      2.178494040000000
Au      4.891686430000000      1.808032320000000      1.904918360000000
Au     -1.419814260000000      1.554563940000000      4.153831000000000
Au     -1.665281490000000     -1.130156500000000      4.867973530000000
Au      2.258829170000000     -1.336422930000000      1.368560550000000
Au      2.437236750000000     -3.978207810000000      2.482979050000000
Au      1.138192960000000      2.482332390000000      4.584241840000000
Au      0.344497150000000     -2.674537700000000      3.802905730000000
Au      4.898392920000000     -0.878881950000000      2.532575920000000
Au      3.280205710000000      0.851210820000000      3.988306960000000
Au      0.926661010000000     -0.274855980000000      5.170242490000000
Au      2.983712880000000     -1.907758380000000      4.247462780000000
H      -2.499958503459772     -3.203345096890963      0.464004046751596
H      -3.718680717785190     -3.038195700770425     -1.695961932099283
H      -4.528152651143305     -0.829909582035223     -2.500866124522072
H      -4.118445899833297      1.213258583491867     -1.145772350607571
H      -2.899648288319603      1.048175454494302      1.014617283883066
C      -2.627139267164451     -1.087284959327093      0.868251391387730
C      -2.856341017756924     -2.230827215796793      0.109779395525577
C      -3.538407552198419     -2.138367586778442     -1.099047877329378
C      -3.991441657772220     -0.902572184176189     -1.549600110934388
C      -3.762120133358296      0.240847328448303     -0.791153667078168
C      -3.080041269049308      0.148470260064391      0.417729200159871
