Benzene
1.0
        6.2089996338         0.0000000000         0.0000000000
        0.0000000000         6.2089996338         0.0000000000
        0.0000000000         0.0000000000         6.2089996338
    H    C
    6    6
Direct
     0.696392357         0.473393470         0.847874045
     0.296360105         0.489853442         0.844540238
     0.099999994         0.516443849         0.496706396
     0.303607643         0.526606560         0.152125925
     0.703591585         0.510114372         0.155411482
     0.899999976         0.483540028         0.503293574
     0.609921098         0.485118389         0.694660962
     0.386052489         0.494330823         0.692824960
     0.276163638         0.509212434         0.498155892
     0.390095025         0.514897704         0.305306792
     0.613947511         0.505669177         0.307158947
     0.723852515         0.490787566         0.501827955
