26

    O      1.53115593      3.57967559     -0.00020025
    O      1.53116358     -3.58062754     -0.00019245
    O      6.09332060      3.57969949     -0.00021968
    O      6.09332857     -3.58064171     -0.00021797
    N      3.81224012      3.54499898     -0.00021035
    N      3.81224772     -3.54594659     -0.00020716
    C      3.81224013      0.71319537     -0.00030916
    C      3.81224198     -0.71414251     -0.00030833
    C      2.56965537      1.41452725     -0.00029877
    C      2.56965879     -1.41547735     -0.00029660
    C      5.05482691      1.41452715     -0.00030480
    C      5.05482966     -1.41547202     -0.00030360
    C      1.37391295      0.70279083     -0.00031543
    C      1.37391481     -0.70374418     -0.00031417
    C      6.25056729      0.70279536     -0.00032555
    C      6.25056885     -0.70373788     -0.00032505
    C      2.56337070      2.90872516     -0.00023919
    C      2.56337706     -2.90967524     -0.00023452
    C      5.06111569      2.90873246     -0.00024836
    C      5.06112182     -2.90967725     -0.00024634
    H      3.81222430      4.56477356     -0.00014697
    H      3.81223412     -4.56572113     -0.00014276
    H      0.43686828      1.25542416     -0.00031471
    H      0.43687195     -1.25638071     -0.00031229
    H      7.18758041      1.25547474     -0.00032818
    H      7.18758243     -1.25641599     -0.00032736
