111

H      -0.391168571168421     -5.085896404214580     -1.107725933172095
C      -0.598536989325746     -6.158275237918206     -1.182124294547735
C      -1.069742199256432     -6.694220879500995     -2.376372894882938
H      -1.233203513995838     -6.043875607518373     -3.241593026290844
C      -1.333358118154361     -8.056785746171268     -2.470979297517323
H      -1.704257315753610     -8.478526267534937     -3.410694237198573
C      -1.125797027147561     -8.883628317498125     -1.371580659287468
H      -1.333280169487183     -9.955841188821392     -1.446117926567598
C      -0.654714164141345     -8.347606899144758     -0.177428438987094
H      -0.491565670957171     -8.998198252392541      0.687684050953347
C      -0.391060608505810     -6.985005140107285     -0.082737051476261
H      -0.020283757831029     -6.563188841973039      0.856881508170158
H       0.344252191044604     -2.674328404763710      3.803070501418512
C       0.192711859905741     -3.448945341088795      4.561712228452205
C       1.149366688637855     -3.649285526447541      5.551751191722819
H       2.053537086568934     -3.032577742480609      5.572290196074261
C       0.956959221039348     -4.633577354557227      6.515688795268205
H       1.709793514330001     -4.791317440529983      7.294697166290539
C      -0.191988718684639     -5.417593152328245      6.489892077463793
H      -0.343306179912244     -6.192134286034555      7.248466106893074
C      -1.148473208078817     -5.217254104883763      5.499821757932198
H      -2.052441875641169     -5.834288250044960      5.479433727847473
C      -0.956136914466452     -4.232945953540491      4.535815832971853
H      -1.708800868419170     -4.075207005482000      3.756776105688537
H       2.365386365386016     -1.349598511331667     -4.110975127200140
C       3.065695649187212     -1.595504594557773     -4.915729900565450
C       4.214132034225799     -2.329955943030114     -4.637922617999525
H       4.417636977754841     -2.661956419326109     -3.614870384876273
C       5.104080273451062     -2.642376500912078     -5.660376659271101
H       6.007851010388562     -3.220222387197064     -5.441771909187835
C       4.845829270405650     -2.220571675302571     -6.960689974791086
H       5.546208823937706     -2.466457808031082     -7.765210944515339
C       3.697492680697047     -1.486091751627595     -7.238358605455083
H       3.494389664748947     -1.154048973550734     -8.261492476676143
C       2.807460206947311     -1.173621846301073     -6.215926229238368
H       1.903789265339795     -0.595747384813452     -6.434392327419710
H       0.927229409379781     -0.274884513840437      5.170194866862841
C       1.015384584375993     -0.337106683807620      6.259639774458430
C       0.134566631528126     -1.133762172470961      6.984209692632975
H      -0.646578733797325     -1.698325523384171      6.465215867008609
C       0.246429490045885     -1.212812523205277      8.368501743803181
H      -0.446748513781710     -1.839610050865540      8.938698696029840
C       1.239015483376486     -0.495418630332927      9.028461332197319
H       1.326958495812021     -0.557677020651505     10.117789299064370
C       2.119663190532959      0.301230760203412      8.303860121573070
H       2.900569466021151      0.865848067964271      8.823185496150549
C       2.007866597946805      0.380335446733647      6.919516529665670
H       2.700874356083006      1.007126876266908      6.349288284989305
H      -2.888155696652637      3.800548874217531     -2.503423214369128
C      -3.549965952636377      4.579829941255935     -2.894909285168873
C      -4.537068395988416      4.253949361856179     -3.819534838730159
H      -4.652093319534547      3.218549220075256     -4.155675082323887
C      -5.377968559632503      5.244068590520331     -4.317106509761432
H      -6.154657284066980      4.987673602465691     -5.044782045585473
C      -5.232064765195887      6.560080637011149     -3.890196699309570
H      -5.893822498364676      7.339158373719986     -4.281808857900110
C      -4.244935752361976      6.885854170847912     -2.965704694653470
H      -4.130029482131777      7.921401658785124     -2.629930798573512
C      -3.403967609770523      5.895758643967781     -2.468063618376362
H      -2.627252315854173      6.152046586459427     -1.740521631457507
Au     -2.964209960000000     -1.315083640000000     -4.132400500000000
Au     -1.372162480000000      0.492805760000000     -5.437834940000000
Au     -0.276315560000000     -1.880773860000000     -4.672714170000000
Au     -3.310123920000000      1.351926600000000     -3.573654280000000
Au     -4.229268570000000     -2.236247980000000     -1.907742100000000
Au     -1.753354820000000     -3.449247460000000     -2.881307520000000
Au     -1.065166740000000      3.014803940000000     -4.525973690000000
Au     -2.166051000000000     -0.394924930000000     -1.450290930000000
Au     -4.822730650000000      0.498325840000000     -1.397899360000000
Au      1.106310430000000      1.111389500000000     -4.388116630000000
Au     -2.887984180000000      3.800495520000000     -2.503819370000000
Au      1.086122460000000     -3.460327040000000     -2.740218500000000
Au     -2.320730340000000     -3.282991590000000     -0.179235120000000
Au     -0.391191840000000     -5.085857530000000     -1.108221410000000
Au     -0.365130810000000     -1.289819180000000      0.545622470000000
Au      2.365832560000000     -1.349503940000000     -4.110615740000000
Au     -4.195092530000000      2.959513890000000     -0.332349840000000
Au     -4.029640910000000     -1.299640440000000      0.734131950000000
Au     -0.561766930000000      1.807984460000000     -2.078467380000000
Au     -0.235699350000000      4.618865800000000     -2.382770050000000
Au      0.508480830000000     -0.774904340000000     -2.097761330000000
Au      1.998767760000000      3.081095720000000     -2.566497800000000
Au     -5.207770220000000      1.080317670000000      1.339765260000000
Au      3.247895480000000      0.641270570000000     -2.417735450000000
Au     -1.249062110000000      1.351762350000000      0.564118280000000
Au      3.242822490000000     -2.077010540000000     -1.576304870000000
Au     -1.690865200000000      4.095873430000000      0.013698300000000
Au      1.510016990000000      0.943186760000000     -0.103857160000000
Au     -3.036230320000000      2.680035830000000      2.196064540000000
Au      1.128162090000000      3.944775500000000     -0.029206170000000
Au      3.714277940000000      2.671788770000000     -0.420468060000000
Au     -3.512292430000000     -0.014423550000000      3.175287460000000
Au      2.144824330000000     -4.292007310000000     -0.269215140000000
Au     -2.141113020000000     -2.372786970000000      2.465777060000000
Au      0.644112690000000      0.535216840000000      2.514128660000000
Au      4.557600860000000     -0.089989650000000     -0.109423330000000
Au     -0.110641800000000     -4.022086560000000      1.422592030000000
Au     -0.291925140000000      3.439849010000000      2.354831130000000
Au      4.395775390000000     -2.939306400000000      0.785591420000000
Au      2.461199280000000      2.990330950000000      2.178494040000000
Au      4.891686430000000      1.808032320000000      1.904918360000000
Au     -1.419814260000000      1.554563940000000      4.153831000000000
Au     -1.665281490000000     -1.130156500000000      4.867973530000000
Au      2.258829170000000     -1.336422930000000      1.368560550000000
Au      2.437236750000000     -3.978207810000000      2.482979050000000
Au      1.138192960000000      2.482332390000000      4.584241840000000
Au      0.344497150000000     -2.674537700000000      3.802905730000000
Au      4.898392920000000     -0.878881950000000      2.532575920000000
Au      3.280205710000000      0.851210820000000      3.988306960000000
Au      0.926661010000000     -0.274855980000000      5.170242490000000
Au      2.983712880000000     -1.907758380000000      4.247462780000000
