12
Properties=species:S:1:pos:R:3 Benzene=T pbc="F F F"
H        2.14482433      -4.29200731      -0.26921514
C        2.70594554      -5.18161857      -0.57297151
C        3.10966386      -6.10892850       0.38233452
H        2.86639566      -5.94919231       1.43759723
C        3.82273287      -7.23927518      -0.00350965
H        4.14052645      -7.96893530       0.74822089
C        4.13214473      -7.44261254      -1.34453382
H        4.69328574      -8.33212600      -1.64806648
C        3.72849340      -6.51525796      -2.29968649
H        3.97211637      -6.67518144      -3.35485400
C        3.01539235      -5.38484729      -1.91391217
H        2.69766576      -4.65514252      -2.66548935
