12
Properties=species:S:1:pos:R:3 Benzene=T pbc="F F F"
H        0.00000000       0.00000000       0.00000000
C       -0.53690000       0.07280000      -0.95130000
C        0.06227059      -0.37568224      -2.12405747
H        1.07040648      -0.80128426      -2.09578369
C       -0.61980400      -0.28313197      -3.33287318
H       -0.14829004      -0.63593583      -4.25574883
C       -1.90103305       0.25775436      -3.36922870
H       -2.43768845       0.33055456      -4.32051551
C       -2.50003798       0.70626764      -2.19651114
H       -3.50811282       1.13202631      -2.22516139
C       -1.81800884       0.61374615      -0.98761113
H       -2.28935713       0.96658106      -0.06477538
